unknown system                          
           1
    11.103019    0.000000    0.000000
    -3.743413   10.541319    0.000000
    -3.513637   -5.197313    9.109288
   La   Li   O    Ta   Zr
    12    22    46     2     6
Direct configuration= 40000
   0.41434811  0.13453989  0.31428282
   0.38505933  0.76034088  0.13554892
   0.60480039  0.26716966  0.87380875
   0.13878652  0.23298213  0.37662105
   0.75907811  0.13171403  0.37419432
   0.24614599  0.89172630  0.62780061
   0.88048956  0.79665701  0.65300442
   0.72342826  0.63237197  0.86185222
   0.61150363  0.87852672  0.74285530
   0.12956810  0.37192447  0.74641168
   0.88969982  0.64260804  0.23249205
   0.22266786  0.36946275  0.11483306
   0.28580493  0.62693592  0.52110615
   0.80418183  1.03570992  0.64530999
   0.60063227  0.54807357  0.28807881
   0.19562995  0.73041377 -0.16507961
  -0.25466005 -0.12470821  0.17702214
   0.46042555  0.70912116  0.42796803
  -0.34736043 -0.20898955  0.39131749
   0.76272587  0.31543242  0.18589354
   0.81090958  0.24899001  0.68948033
   0.85114828  0.21652785  0.96872255
   0.93179473  0.57708570  0.73906681
   0.02620680  0.40979086  0.22348275
   0.13762191  0.80958059  0.04290821
   0.40742032  0.64344653  0.78216110
   0.12567699 -0.09847320  0.27601635
   1.03599725  0.12938524  0.81022217
   0.21765800  0.72519272  0.30948331
   0.49560526  0.29710684  0.13577636
   0.82435437  0.08714048  0.09254156
   0.68966611  0.36847680  0.62234904
   0.27602255  0.16799623  0.78671938
   0.36666614  0.25018624  0.62633245
   0.29418344  0.32453043  0.94236611
   0.10875677  0.63786866  0.44258313
   0.89305534  0.37971439  0.57374754
   0.40072629  0.81440267  0.52956844
   0.78911199  0.88346201  0.98734349
   0.53140073  0.64054677  0.70961294
   0.46661390  0.37843797  0.27848765
   0.72465052  0.68533945  0.09155643
   0.01459669  0.70330441  0.10955764
   0.60343976  0.17236278  0.49721589
   0.00327670  0.20567561  0.11353681
   0.14459336  0.05532841  0.22532554
   0.49679593  0.63007399  0.21112670
   0.51344158  0.41177562  0.83092572
   0.58484735  0.90311196  0.40656905
   0.40705854  0.09331811  0.63818999
   0.93182090  0.32610189  0.32883144
   0.03604524  0.67488896  0.66326466
   0.90675328  1.01689505  0.83272108
   0.20070342  0.49961282  0.60985908
   0.63307520  0.45496069  0.14915592
   0.38788573  0.60219088  0.92069529
   0.02135959  0.32443618  0.88199313
   0.99430213  0.81274240  0.88007116
   0.09116774  0.87957155  0.41383969
   0.41505560  0.30896970  0.48657159
   0.39659464  0.82916801  0.81126283
   0.33085891  0.94424748  0.05536138
   0.66757253  0.09292815  0.96707962
   0.31869383  0.91148542  0.32087694
   0.63370716  0.74695770  0.54021335
   0.91612837  0.12865047  0.58421670
   0.82576565  0.78288240  0.40329936
   0.12376236  0.61903984  0.91074704
   0.88622695  0.42307254  0.07635119
   0.18015873  0.20500014  0.58989571
   0.42776506  0.12309628  0.91492788
   0.59261644  0.94167888  0.13087168
   0.60328568  0.18847431  0.21719618
   0.10298830  0.99425808  0.67874974
   0.90728523  0.06148322  0.31562917
   0.70319640  0.12102328  0.74358433
   0.30965363  0.49266978  0.40570124
   0.81121566  0.43204942  0.81370799
   0.20524276  0.57397009  0.16120619
   0.71805135  0.54941145  0.62341218
   1.02377382  0.50273942  0.51577391
   0.49608447  0.01357082  0.01072007
   0.50158774  0.99602070  0.51725797
   0.98368405  0.98507998  1.01250165
   0.00331035  0.52025587  0.97530616
  -0.00732747 -0.01232999  0.48441186
   0.51297552  0.51002741  0.50636792
   0.50864814  0.52367944  0.02028828
