unknown system                          
   1.0000000000000000     
    11.1462325086119609   -0.0341281099942547   -0.0473494223425838
    -3.7907567931316364   10.5137455331200460   -0.0234811171644184
    -3.5501476701842005   -5.2013589863321696    9.1462865067250583
   La   Li   O    Ta   Zr
    12    22    46     2     6
Direct
  0.4065500034765037  0.1479522452522204  0.2876910371778862
  0.3892977686685555  0.7621601748052456  0.1372158703255764
  0.6289560251127142  0.2619065561449858  0.8801708949866978
  0.1505806768676692  0.2560440700005771  0.3864342311511919
  0.7550855980218287  0.1299186636065102  0.3857634991471883
  0.2456360956071109  0.8948454069512124  0.6381640625038472
  0.8793627792970682  0.7820256173910138  0.6469743988512491
  0.7375911035341147  0.6243149347630492  0.8730838853739655
  0.6135501529981582  0.8809581655056391  0.7624306357543418
  0.1461959910911759  0.3873689362044388  0.7658300616994325
  0.8837175071620109  0.6486135457016715  0.2438231241978883
  0.2511608474462363  0.3962954834245878  0.1377516082866279
  0.2741692347738365  0.6256839716857954  0.4950198765040383
  0.7514285512470380  0.9866418249566493  0.5994537798147590
  0.6000578122169458  0.5313130047888706  0.2879207592334083
  0.2163598975292729  0.7500976775649306  0.8462522867209188
  0.7442227224481854  0.8746009151156358  0.1376734429949025
  0.4456523970674695  0.7069218175812395  0.4011268953124230
  0.6513793037612317  0.7729778440378041  0.3701073508503896
  0.7463615951766585  0.3055227491060606  0.1804646893733732
  0.8317291898390522  0.2509959486801208  0.7232351017316105
  0.8930022340055075  0.1953801460578788  0.9357880696299290
  0.9554408873845261  0.5823490336688693  0.7556944133363430
  0.0152198445892680  0.4129428931998476  0.2335897008743117
  0.1243128950836194  0.8105473502091129  0.0285973329292162
  0.3987743993219866  0.6417199311567074  0.7797148219129326
  0.1346911140229849  0.9116628221599186  0.2699497313307404
  0.0171542469609776  0.1268543468300081  0.7840473087525837
  0.2171440623053087  0.7483921466959202  0.3266136474412704
  0.4954926514825075  0.2805962408265188  0.1152782109170900
  0.8321105695501814  0.1156813463477420  0.1299359748218549
  0.7241437859873301  0.3790404163821250  0.6111539083463455
  0.2807850225510435  0.1626445863304156  0.8345555673761424
  0.3828953393222179  0.2616379401319264  0.6394333692703071
  0.2961228943534024  0.3331863857439501  0.9362207163270995
  0.0786873325777009  0.6106854200076910  0.4158229848391954
  0.9153992429768394  0.3957287294041691  0.5915401203199195
  0.3902274789414051  0.8176422857705390  0.5276795826134162
  0.7867747019577109  0.8991140249540024  0.9908784927412810
  0.5351927226378663  0.6357800191308414  0.7122982264748927
  0.4572783662770306  0.3743264221033229  0.2802664315636108
  0.7116350188313803  0.6853925542975432  0.0885201445706301
  0.9977294004362349  0.7047361659668283  0.1057508921667178
  0.6051344288992198  0.1818678368618549  0.4863294991577192
  0.0208746798840025  0.2143966242132365  0.1238724836394383
  0.1493426130572999  0.0536880541144313  0.2011722416986430
  0.4844511272559089  0.6057240682395246  0.2007771427135765
  0.5348836906697656  0.4120963339948318  0.8386530953492084
  0.5885730383513845  0.9101394333230743  0.4006048910201017
  0.4167279539163502  0.0989658686841892  0.6425188206234012
  0.9127131399537163  0.3194060901520359  0.3261267142278470
  0.0499986438670845  0.6850047884232353  0.6582430264820545
  0.8875513334636551  0.9984517773685795  0.8156386161641080
  0.1950255391075331  0.5020815016249998  0.6037123174159760
  0.6397047703609289  0.4401633440502195  0.1329609472518811
  0.3849026040674772  0.5940474937294766  0.9227497387820662
  0.0233763660950288  0.3280960092380099  0.9022150054970766
  0.9665400225921985  0.8037079258008362  0.8883173956119350
  0.0984881116971792  0.8918292195660698  0.4199815475453619
  0.3958580273830208  0.3100983316114991  0.4886884568676706
  0.3989987145897729  0.8314488872792580  0.8131962901238623
  0.3254563648364766  0.9246785178521648  0.0392975263580695
  0.6726391597769421  0.1035853013789350  0.9880985971821161
  0.3221101308288681  0.9191107471406852  0.3069150964038840
  0.6234221940496809  0.7259043574057884  0.5302869110535298
  0.9110851508650555  0.1230460508194469  0.6008017505670011
  0.8336984355997714  0.7896093070835306  0.4222563076949655
  0.1287144196736136  0.6209348853495840  0.9178772827309416
  0.8824956342862151  0.4184635086526640  0.0850736615825411
  0.1815449417759680  0.2201795314091370  0.5932306415946584
  0.4146906392889704  0.1076510921641542  0.9123262239090977
  0.5959426427641148  0.9359884373452942  0.1290580569034532
  0.5910351905435576  0.1916910470659872  0.2060326826033290
  0.0958625982460646  0.0002971683854085  0.6945481818282033
  0.9144423274920612  0.0454665088070598  0.3249937065816226
  0.6850236668292382  0.0926187326233716  0.7183970824170558
  0.3021154093401464  0.4857637298068127  0.3889003237973299
  0.8092276959311562  0.4303681020578338  0.8156911418084576
  0.2145159857522572  0.5976993300537785  0.1839628579093073
  0.7195333666065054  0.5455053802476186  0.6148083013554171
  0.0223594644380398  0.5017061688481377  0.5168021829846268
  0.4964434572796392  0.0106865450300617  0.0127132229671076
  0.4957051994793673  0.0103172983678306  0.5132215667284896
  0.9774909595388266  0.9945975782407857  0.0088417142058930
  0.0077218195750035  0.5187479805906889  0.0029598951989840
  0.0043695216646000  0.0096659696340780  0.4982008224569086
  0.5095435930559731  0.5123973703950497  0.5082673960114121
  0.5083336303705011  0.5135646943246286  0.0129802344461396

  0.00000000E+00  0.00000000E+00  0.00000000E+00
  0.00000000E+00  0.00000000E+00  0.00000000E+00
  0.00000000E+00  0.00000000E+00  0.00000000E+00
  0.00000000E+00  0.00000000E+00  0.00000000E+00
  0.00000000E+00  0.00000000E+00  0.00000000E+00
  0.00000000E+00  0.00000000E+00  0.00000000E+00
  0.00000000E+00  0.00000000E+00  0.00000000E+00
  0.00000000E+00  0.00000000E+00  0.00000000E+00
  0.00000000E+00  0.00000000E+00  0.00000000E+00
  0.00000000E+00  0.00000000E+00  0.00000000E+00
  0.00000000E+00  0.00000000E+00  0.00000000E+00
  0.00000000E+00  0.00000000E+00  0.00000000E+00
  0.00000000E+00  0.00000000E+00  0.00000000E+00
  0.00000000E+00  0.00000000E+00  0.00000000E+00
  0.00000000E+00  0.00000000E+00  0.00000000E+00
  0.00000000E+00  0.00000000E+00  0.00000000E+00
  0.00000000E+00  0.00000000E+00  0.00000000E+00
  0.00000000E+00  0.00000000E+00  0.00000000E+00
  0.00000000E+00  0.00000000E+00  0.00000000E+00
  0.00000000E+00  0.00000000E+00  0.00000000E+00
  0.00000000E+00  0.00000000E+00  0.00000000E+00
  0.00000000E+00  0.00000000E+00  0.00000000E+00
  0.00000000E+00  0.00000000E+00  0.00000000E+00
  0.00000000E+00  0.00000000E+00  0.00000000E+00
  0.00000000E+00  0.00000000E+00  0.00000000E+00
  0.00000000E+00  0.00000000E+00  0.00000000E+00
  0.00000000E+00  0.00000000E+00  0.00000000E+00
  0.00000000E+00  0.00000000E+00  0.00000000E+00
  0.00000000E+00  0.00000000E+00  0.00000000E+00
  0.00000000E+00  0.00000000E+00  0.00000000E+00
  0.00000000E+00  0.00000000E+00  0.00000000E+00
  0.00000000E+00  0.00000000E+00  0.00000000E+00
  0.00000000E+00  0.00000000E+00  0.00000000E+00
  0.00000000E+00  0.00000000E+00  0.00000000E+00
  0.00000000E+00  0.00000000E+00  0.00000000E+00
  0.00000000E+00  0.00000000E+00  0.00000000E+00
  0.00000000E+00  0.00000000E+00  0.00000000E+00
  0.00000000E+00  0.00000000E+00  0.00000000E+00
  0.00000000E+00  0.00000000E+00  0.00000000E+00
  0.00000000E+00  0.00000000E+00  0.00000000E+00
  0.00000000E+00  0.00000000E+00  0.00000000E+00
  0.00000000E+00  0.00000000E+00  0.00000000E+00
  0.00000000E+00  0.00000000E+00  0.00000000E+00
  0.00000000E+00  0.00000000E+00  0.00000000E+00
  0.00000000E+00  0.00000000E+00  0.00000000E+00
  0.00000000E+00  0.00000000E+00  0.00000000E+00
  0.00000000E+00  0.00000000E+00  0.00000000E+00
  0.00000000E+00  0.00000000E+00  0.00000000E+00
  0.00000000E+00  0.00000000E+00  0.00000000E+00
  0.00000000E+00  0.00000000E+00  0.00000000E+00
  0.00000000E+00  0.00000000E+00  0.00000000E+00
  0.00000000E+00  0.00000000E+00  0.00000000E+00
  0.00000000E+00  0.00000000E+00  0.00000000E+00
  0.00000000E+00  0.00000000E+00  0.00000000E+00
  0.00000000E+00  0.00000000E+00  0.00000000E+00
  0.00000000E+00  0.00000000E+00  0.00000000E+00
  0.00000000E+00  0.00000000E+00  0.00000000E+00
  0.00000000E+00  0.00000000E+00  0.00000000E+00
  0.00000000E+00  0.00000000E+00  0.00000000E+00
  0.00000000E+00  0.00000000E+00  0.00000000E+00
  0.00000000E+00  0.00000000E+00  0.00000000E+00
  0.00000000E+00  0.00000000E+00  0.00000000E+00
  0.00000000E+00  0.00000000E+00  0.00000000E+00
  0.00000000E+00  0.00000000E+00  0.00000000E+00
  0.00000000E+00  0.00000000E+00  0.00000000E+00
  0.00000000E+00  0.00000000E+00  0.00000000E+00
  0.00000000E+00  0.00000000E+00  0.00000000E+00
  0.00000000E+00  0.00000000E+00  0.00000000E+00
  0.00000000E+00  0.00000000E+00  0.00000000E+00
  0.00000000E+00  0.00000000E+00  0.00000000E+00
  0.00000000E+00  0.00000000E+00  0.00000000E+00
  0.00000000E+00  0.00000000E+00  0.00000000E+00
  0.00000000E+00  0.00000000E+00  0.00000000E+00
  0.00000000E+00  0.00000000E+00  0.00000000E+00
  0.00000000E+00  0.00000000E+00  0.00000000E+00
  0.00000000E+00  0.00000000E+00  0.00000000E+00
  0.00000000E+00  0.00000000E+00  0.00000000E+00
  0.00000000E+00  0.00000000E+00  0.00000000E+00
  0.00000000E+00  0.00000000E+00  0.00000000E+00
  0.00000000E+00  0.00000000E+00  0.00000000E+00
  0.00000000E+00  0.00000000E+00  0.00000000E+00
  0.00000000E+00  0.00000000E+00  0.00000000E+00
  0.00000000E+00  0.00000000E+00  0.00000000E+00
  0.00000000E+00  0.00000000E+00  0.00000000E+00
  0.00000000E+00  0.00000000E+00  0.00000000E+00
  0.00000000E+00  0.00000000E+00  0.00000000E+00
  0.00000000E+00  0.00000000E+00  0.00000000E+00
  0.00000000E+00  0.00000000E+00  0.00000000E+00
