unknown system                          
           1
    11.135316    0.000000    0.000000
    -3.747854   10.599354    0.000000
    -3.807972   -5.329954    9.121129
   La   Li   O    Ta   Zr
    12    20    45     2     6
Direct configuration= 65000
   0.64075686  0.88537121  0.74391397
   0.84211787  0.62519826  0.22066866
   0.09425757  0.39378562  0.74994932
   0.38064002  0.13934362  0.25587696
   0.74122311  0.64055529  0.85372160
   0.24346115  0.38315362  0.13352895
   0.23242584  0.87685488  0.59691623
   0.76166750  0.12399162  0.37432176
   0.87190267  0.74150607  0.61466226
   0.11758334  0.24185175  0.36101878
   0.60291060  0.20042844  0.85403645
   0.37920426  0.75071259  0.11651622
   0.59730542 -0.25630098  0.39234456
   0.85498807  0.12654088  0.71139083
   0.60958308  0.48286465  0.26807720
   0.73148039  0.34200746  0.20847222
   0.75130183  0.86953507  0.13514290
   0.53072991  0.29510282  0.63673612
   0.81796691  1.08010331  1.10671743
   0.28140224  0.61746243  0.39803205
   0.10972836  0.72549045  0.85515298
   0.77102173  0.36353305  0.66237782
   0.35521251  0.55298371  0.72591300
   0.18666920  0.93463262  0.84819555
   0.03394055  0.40025959  0.23186768
   0.16199041  0.71841455  0.27003453
   0.07196759  0.11370591  0.83039748
   0.20210331 -0.01581293  0.35424789
   0.37581664  0.20440072  1.00185128
   1.14511813  0.81386012  0.07763606
   0.89299753  0.21990361 -0.01162521
   0.68889577  0.39468901  0.45223906
   0.19288002  0.08914921  1.01033709
   0.10009076  0.61080272  0.40368964
   0.89882829  0.39006422  0.59419094
   0.40914872  0.82281062  0.53506324
   0.82197662  0.89593780  1.00244180
   0.50188391  0.62073417  0.68930456
   0.47359561  0.37421144  0.29919816
   0.66587523  0.61934827  0.02720628
   0.96287120  0.67436498  0.09004501
   0.59820805  0.17684362  0.47001342
   0.14777948  0.04489069  0.20727192
   0.49244155  0.58231720  0.18339795
   0.27643825  0.28238479  0.91829068
   0.61721552  0.91761345  0.40908944
   0.41229262  0.09748202  0.60316936
   0.90176684  0.28075088  0.30746256
   0.07561863  0.71368703  0.66920004
   0.88557843  0.99485525  0.83157659
   0.14725990  0.44030226  0.56842717
   0.79844444  0.50706663  0.38751158
   0.36193821  0.57168395  0.90512242
   0.60227227  0.38122079  0.06659111
   0.01942081  0.30590498  0.89417730
   0.98419348  0.80945381  0.89920656
   0.06238328  0.87652725  0.38399176
   0.61624503  0.68453377  0.53217863
   0.66016643  1.06478545  0.97110391
   0.30078805  0.88304579  0.00275520
   0.02300587  0.20576407  0.11900120
   0.38925478  0.31824614  0.49745042
   0.29769752  0.90236720  0.28294755
   0.96718170  0.14387661  0.61278325
   0.79082171  0.76900455  0.41732820
   0.11614609  0.60576507  0.93132883
   0.86442264  0.36868326  0.05105361
   0.37593826  0.02676316  0.85056323
   0.59614131  0.92885624  0.12722215
   0.59246462  0.20816441  0.22567939
   0.07370110  0.96591606  0.67128820
   0.91023106  0.03540054  0.34167817
   0.67556588  0.09970265  0.70204788
   0.29121299  0.46875641  0.37554951
   0.73953600  0.41126622  0.80814185
   0.17719435  0.57421392  0.16786354
   0.69234118  0.51117611  0.60621759
  -0.00202375 -0.00003957  1.00847703
   0.49596710  0.49459210  0.49835706
   0.01037814  0.51338266  0.50407571
   0.50386941 -0.01156837  0.48727314
   0.97661815  0.50220147  0.99516316
   0.96134789  0.96225973  0.48176607
   0.50477006  1.02069483  0.03041209
   0.47181065  0.48292921 -0.00370263
