unknown system                          
   1.0000000000000000     
    11.1942921923237932   -0.0369639877960866   -0.0713458576190321
    -3.8023021694137684   10.5740192649171814   -0.0139196547703400
    -3.8709271469304394   -5.3312861854822469    9.0529131619368162
   La   Li   O    Ta   Zr
    12    20    45     2     6
Direct
  0.6292112353785626  0.8685187706970936  0.7385643016590677
  0.8512706380078754  0.6097748709698436  0.2273700016466123
  0.1114526373086591  0.3924069103419967  0.7613979554538801
  0.3787595045691816  0.1322492477163735  0.2556841918369770
  0.7630454419875292  0.6387352782832139  0.8784928374347913
  0.2427036486428094  0.3815332420135249  0.1293673679044076
  0.2304330864412876  0.8711070170599342  0.6066123253255071
  0.7573428022294593  0.1183402671685982  0.3876582616103903
  0.8633717312676552  0.7253121349494478  0.6063806771630453
  0.1234208542301545  0.2467539685975453  0.3720897079335899
  0.6009494596447524  0.2221709194779464  0.8638127018112698
  0.3688308189102685  0.7558770261326799  0.1290598881154210
  0.6091397192100771  0.7452476129724985  0.3782776639401533
  0.8569162621081858  0.1159482280253599  0.7216250545636456
  0.5993821660827763  0.3913012636417932  0.2341418168453586
  0.7669512984225122  0.3087753150007941  0.1967987775103239
  0.7408272141367434  0.8579098624731074  0.1233902152281487
  0.5203660070135427  0.2746372808399684  0.6005947635115731
  0.8251572444063626  0.0915261635644669  0.1080946402341780
  0.2734707213031200  0.6309548410936969  0.4014015544732814
  0.1129563321361715  0.7244370061758758  0.8602720038016827
  0.7655778091048759  0.3714257050128751  0.6513010436987798
  0.3707992604643451  0.5728818804068680  0.7348923394869757
  0.1994813708750556  0.9553056719162427  0.8770191356647885
  0.0225442319975002  0.4217577757395929  0.2354098042950454
  0.1595065739032435  0.7380446749512686  0.2781000077561231
  0.0846425229394825  0.1159301866442206  0.8078273076137137
  0.2318000750621394  0.0117894176483873  0.4036545346678579
  0.3612193875811585  0.2108298790821550  0.9522677932385548
  0.1076473621911092  0.8382830507566652  0.1153926769616689
  0.8760886928022771  0.2002099450060726  0.9555770070801870
  0.7095145146403183  0.3806378760585147  0.4467743000094089
  0.1955711811022596  0.1200591139965042  0.0082688063325875
  0.0884981689578055  0.6121145807201671  0.4010270651163097
  0.8907824633650421  0.3785306683789571  0.5705921147186359
  0.4077909963461011  0.8300657632332218  0.5478196299553559
  0.8109973828457981  0.8976879751435476  0.9829791851243144
  0.5288756712691836  0.6138174409942252  0.7024030448876744
  0.4701632324727854  0.3811905633641643  0.3038964900292171
  0.6848369036789705  0.6483965683111990  0.0496102505970555
  0.9710931129755025  0.6721135420924895  0.0982838825557977
  0.5884078580252989  0.1827769605400249  0.4757721489772422
  0.1260673296372730  0.0304369858693292  0.1947503102520685
  0.4548634679929719  0.5934886744939405  0.1791209308330153
  0.2755471820697721  0.3179831744176909  0.8977672327377846
  0.5839508041110761  0.9095317950461208  0.3841757336085649
  0.4098096132483064  0.1023417934274846  0.6084145897492945
  0.9199617591543117  0.2928621258261046  0.3070989239707629
  0.0933577561616517  0.7074788278140502  0.6772239576404928
  0.8870141622866328  0.9863752792874863  0.8031397114772645
  0.1694405355384987  0.4458300062049929  0.5883893725674483
  0.8115003855910246  0.5044929316565785  0.3862478227882207
  0.3697318925868558  0.5900920338555835  0.9067781440780252
  0.5769816836220798  0.3859236720455570  0.0565640141603367
  0.0062007117512337  0.3089901913685154  0.9039024976621235
  0.9854629226270575  0.8098288204171951  0.8895253124877556
  0.0771153897425734  0.8781857145137906  0.4050386666137911
  0.6144342029621086  0.6911877514721851  0.5271361083290387
  0.6548004009710695  0.0632339259167338  0.9557236015859374
  0.3127275193800756  0.9089124120415732  0.0272755416062438
  0.0182568246744026  0.1970595015861747  0.1131406962383963
  0.3796700516997262  0.2988315628615865  0.4789161204020473
  0.3042972841376468  0.9064939124045637  0.2943035828426019
  0.9419468591875244  0.1282996903836207  0.6032943908929127
  0.7935937462992797  0.7657852339848716  0.3921013926731121
  0.1027420393566274  0.5881977229831392  0.9205820409283589
  0.8539961101228641  0.3805492529818650  0.0751447085609414
  0.3823339934270962  0.0479300685959174  0.8664200532326731
  0.5937018025020606  0.9186907518799714  0.1264265212527604
  0.5961224163761827  0.1972654958796767  0.2129885079949290
  0.0695899465639656  0.9526501966155436  0.6674783472643355
  0.9164601185602947  0.0340236705756922  0.3294884018298063
  0.6808118900286999  0.0874314174920912  0.7165941273218550
  0.2959784812787376  0.4681757575383898  0.3845050812743622
  0.7484234894564992  0.4068932257071793  0.8201193693784390
  0.1759001461100240  0.5687955014643151  0.1851583190922454
  0.6927092622674209  0.5089581256517519  0.6067380150121551
  0.0030474923300545  0.0039654960384752  0.9965133358839964
  0.4943477108745427  0.4959377583006059  0.5006266877640684
  0.0109366131320172  0.4999314643914090  0.5007179043637038
  0.5033681285132445  0.9981341817658134  0.5044077876919744
  0.9756300754587173  0.4838084403981711  0.9903474016473197
  0.9627340559968118  0.9605876600547347  0.4788961806344290
  0.5046189470832871  0.0124880360130675  0.0269674835692868
  0.4795839090898255  0.5118500315832861  0.0122089033345247

  0.00000000E+00  0.00000000E+00  0.00000000E+00
  0.00000000E+00  0.00000000E+00  0.00000000E+00
  0.00000000E+00  0.00000000E+00  0.00000000E+00
  0.00000000E+00  0.00000000E+00  0.00000000E+00
  0.00000000E+00  0.00000000E+00  0.00000000E+00
  0.00000000E+00  0.00000000E+00  0.00000000E+00
  0.00000000E+00  0.00000000E+00  0.00000000E+00
  0.00000000E+00  0.00000000E+00  0.00000000E+00
  0.00000000E+00  0.00000000E+00  0.00000000E+00
  0.00000000E+00  0.00000000E+00  0.00000000E+00
  0.00000000E+00  0.00000000E+00  0.00000000E+00
  0.00000000E+00  0.00000000E+00  0.00000000E+00
  0.00000000E+00  0.00000000E+00  0.00000000E+00
  0.00000000E+00  0.00000000E+00  0.00000000E+00
  0.00000000E+00  0.00000000E+00  0.00000000E+00
  0.00000000E+00  0.00000000E+00  0.00000000E+00
  0.00000000E+00  0.00000000E+00  0.00000000E+00
  0.00000000E+00  0.00000000E+00  0.00000000E+00
  0.00000000E+00  0.00000000E+00  0.00000000E+00
  0.00000000E+00  0.00000000E+00  0.00000000E+00
  0.00000000E+00  0.00000000E+00  0.00000000E+00
  0.00000000E+00  0.00000000E+00  0.00000000E+00
  0.00000000E+00  0.00000000E+00  0.00000000E+00
  0.00000000E+00  0.00000000E+00  0.00000000E+00
  0.00000000E+00  0.00000000E+00  0.00000000E+00
  0.00000000E+00  0.00000000E+00  0.00000000E+00
  0.00000000E+00  0.00000000E+00  0.00000000E+00
  0.00000000E+00  0.00000000E+00  0.00000000E+00
  0.00000000E+00  0.00000000E+00  0.00000000E+00
  0.00000000E+00  0.00000000E+00  0.00000000E+00
  0.00000000E+00  0.00000000E+00  0.00000000E+00
  0.00000000E+00  0.00000000E+00  0.00000000E+00
  0.00000000E+00  0.00000000E+00  0.00000000E+00
  0.00000000E+00  0.00000000E+00  0.00000000E+00
  0.00000000E+00  0.00000000E+00  0.00000000E+00
  0.00000000E+00  0.00000000E+00  0.00000000E+00
  0.00000000E+00  0.00000000E+00  0.00000000E+00
  0.00000000E+00  0.00000000E+00  0.00000000E+00
  0.00000000E+00  0.00000000E+00  0.00000000E+00
  0.00000000E+00  0.00000000E+00  0.00000000E+00
  0.00000000E+00  0.00000000E+00  0.00000000E+00
  0.00000000E+00  0.00000000E+00  0.00000000E+00
  0.00000000E+00  0.00000000E+00  0.00000000E+00
  0.00000000E+00  0.00000000E+00  0.00000000E+00
  0.00000000E+00  0.00000000E+00  0.00000000E+00
  0.00000000E+00  0.00000000E+00  0.00000000E+00
  0.00000000E+00  0.00000000E+00  0.00000000E+00
  0.00000000E+00  0.00000000E+00  0.00000000E+00
  0.00000000E+00  0.00000000E+00  0.00000000E+00
  0.00000000E+00  0.00000000E+00  0.00000000E+00
  0.00000000E+00  0.00000000E+00  0.00000000E+00
  0.00000000E+00  0.00000000E+00  0.00000000E+00
  0.00000000E+00  0.00000000E+00  0.00000000E+00
  0.00000000E+00  0.00000000E+00  0.00000000E+00
  0.00000000E+00  0.00000000E+00  0.00000000E+00
  0.00000000E+00  0.00000000E+00  0.00000000E+00
  0.00000000E+00  0.00000000E+00  0.00000000E+00
  0.00000000E+00  0.00000000E+00  0.00000000E+00
  0.00000000E+00  0.00000000E+00  0.00000000E+00
  0.00000000E+00  0.00000000E+00  0.00000000E+00
  0.00000000E+00  0.00000000E+00  0.00000000E+00
  0.00000000E+00  0.00000000E+00  0.00000000E+00
  0.00000000E+00  0.00000000E+00  0.00000000E+00
  0.00000000E+00  0.00000000E+00  0.00000000E+00
  0.00000000E+00  0.00000000E+00  0.00000000E+00
  0.00000000E+00  0.00000000E+00  0.00000000E+00
  0.00000000E+00  0.00000000E+00  0.00000000E+00
  0.00000000E+00  0.00000000E+00  0.00000000E+00
  0.00000000E+00  0.00000000E+00  0.00000000E+00
  0.00000000E+00  0.00000000E+00  0.00000000E+00
  0.00000000E+00  0.00000000E+00  0.00000000E+00
  0.00000000E+00  0.00000000E+00  0.00000000E+00
  0.00000000E+00  0.00000000E+00  0.00000000E+00
  0.00000000E+00  0.00000000E+00  0.00000000E+00
  0.00000000E+00  0.00000000E+00  0.00000000E+00
  0.00000000E+00  0.00000000E+00  0.00000000E+00
  0.00000000E+00  0.00000000E+00  0.00000000E+00
  0.00000000E+00  0.00000000E+00  0.00000000E+00
  0.00000000E+00  0.00000000E+00  0.00000000E+00
  0.00000000E+00  0.00000000E+00  0.00000000E+00
  0.00000000E+00  0.00000000E+00  0.00000000E+00
  0.00000000E+00  0.00000000E+00  0.00000000E+00
  0.00000000E+00  0.00000000E+00  0.00000000E+00
  0.00000000E+00  0.00000000E+00  0.00000000E+00
  0.00000000E+00  0.00000000E+00  0.00000000E+00
