unknown system                          
   1.0000000000000000     
    11.1375656663300138   -0.0459162271113809   -0.0291983287526906
    -3.7673995723695679   10.4914369662057627    0.0490241510831868
    -3.7068757585272794   -5.2198436474958658    9.0984636146432649
   La   Li   O    Ta   Zr
    12    26    48     2     6
Direct
  0.2400365735710110  0.3869884882156285  0.1305326396210020
  0.3796175668168189  0.7650745573362201  0.1393005949629824
  0.6253928848610428  0.2565063210235934  0.8879674853649959
  0.8675090480139076  0.7565384477124439  0.6208235129096522
  0.7490061598818301  0.1346535042795693  0.3828151861346143
  0.2465198046756854  0.8791671282657987  0.6313853475677007
  0.1155547531457515  0.2647203491454633  0.3748689997281573
  0.3717921037867953  0.1341403155129086  0.2559602010608870
  0.6106439009192712  0.8761245856265560  0.7513882371750995
  0.1186069289146872  0.3834322578454774  0.7521532449483814
  0.8676780995729771  0.6291901335090202  0.2549041037763047
  0.7472074666716679  0.6330395226104244  0.8777612457906514
  0.3744430881538747  0.2267317011747636  0.0026183975383702
  0.7130699141655583  0.3929798973644338  0.5117452116105738
  0.2305927235554961  0.7280640899495054  0.8424414485948262
  0.8824525152553875  0.1803548274303353  0.8987999425297843
  0.6345018509597367  0.7740379175628931  0.3828957603347689
  0.7860383842828611  0.0211710215678380  0.1182942889899223
  0.5935763914979333  0.5379719743869629  0.2876341241887843
  0.1151872309368827  0.8034835126506437  0.0328670191980365
  0.9550518921298163  0.5805195032208417  0.7579945749255259
  0.5282374527881046  0.2952333879621705  0.6209415466727961
  0.3532891645284124  0.6235219879611407  0.7243623329603466
  0.8735049930579848  0.2742407410174152  0.1402802450199729
  0.4299336600781771  0.6947827887200830  0.4028139163314108
  0.2088104414635765  0.6095037210325103  0.3735124504230924
  0.3169163366645975  0.2096268973218045  0.7476734103928209
  0.7890332685834096  0.0259879158408083  0.6349572800202807
  0.6391747450293437  0.3576427694748787  0.2463066896288097
  0.1730249516274966  0.9325927363783819  0.8880523209513527
  0.0944264785662128  0.1194569370715257  0.8247829600108219
  0.9866578649032292  0.9014924859301985  0.2190138449085666
  0.3783377930821530  0.4007699759998573  0.6690700067311468
  0.1646988629671569  0.7998715366630478  0.2887797903981522
  0.7293326508334061  0.8460058946501974  0.2250895813365972
  0.7841253216687463  0.2857333924650547  0.6829694076628030
  0.2596654689306988  0.0985462491127649  0.4804829219144651
  0.5610575110507483  0.7555137569288277  0.9619083594565296
  0.2832982713940382  0.3182893873878641  0.9095704646297236
  0.0756578790131215  0.6363710683383772  0.4198177638420191
  0.8969894705006283  0.3937132501276466  0.5982117690924014
  0.3981765458482798  0.8250506459158231  0.5285987723806400
  0.5981566364116873  0.2026316466708948  0.4987122266210875
  0.5168649743326057  0.6184136058048395  0.7125517700042394
  0.1907819232968038  0.1219445225832914  0.0131467730572723
  0.4700762958981670  0.3839131679993955  0.2970702305019373
  0.6936574208606814  0.6836768930603938  0.0749907264378393
  0.9840039908251725  0.6978426154122417  0.1011040543930974
  0.7958468263939480  0.8899975003976195  0.9698695466437783
  0.0065091158927970  0.2030423606171965  0.1043718105700862
  0.8882499673999220  0.9995989288216336  0.8031018068287068
  0.4690071998621406  0.6021566329246824  0.1901094246627721
  0.5168547485072708  0.4019576442038613  0.8224662046418771
  0.5902752038016743  0.9195949355346613  0.3967125878984774
  0.4138438058346949  0.1073796723276246  0.6291540966220879
  0.9056478448064169  0.2970383488407649  0.3246291012322757
  0.0751238806173333  0.7079323276528413  0.6891788999148858
  0.1106476647284182  0.0385973814179650  0.1939033085666395
  0.1656317021390308  0.4718181259785581  0.5907399956105550
  0.8038216338876936  0.5299889695234654  0.4122645934705318
  0.3746336201774199  0.5973163924609182  0.9083623190673364
  0.6045415848118552  0.4229416120158049  0.1073882399796133
  0.0265889335190579  0.3487077723348833  0.9223410355403630
  0.9802163830437678  0.8193326123470399  0.8881580152131789
  0.0897466372502436  0.8985968798078403  0.4013155841669587
  0.3099586993892700  0.9083211635987283  0.0235970134176284
  0.4088832066007200  0.8227796251469357  0.8076883967431030
  0.3268830509498386  0.9303947049136312  0.2993477369001454
  0.6838570259965806  0.0976073703918701  0.9829779956287226
  0.3760260364263814  0.3019740722705038  0.4831227891051313
  0.6124106282121033  0.7153085537879775  0.5237087645564529
  0.9199962875626468  0.1344365192044563  0.5965764893943160
  0.8121391513678660  0.7994784557407257  0.4007516490952270
  0.1127583602079980  0.6137409819100768  0.9280607294895873
  0.8821559790076208  0.4220388594964390  0.0889681382510048
  0.1858346885182129  0.2142160184617765  0.5874727620404840
  0.4087157785803726  0.0952716125991131  0.8878068347256232
  0.6013039233541591  0.9189517229642092  0.1267468060429806
  0.5783137924755053  0.1745164949940730  0.2188667275202718
  0.0889167360920951  0.9746203793098687  0.6762082826768960
  0.9062146195735394  0.0285337701343309  0.3125002019399972
  0.6870166763179952  0.1029799417492399  0.7168876483653221
  0.2959264939461121  0.4902916537580708  0.3787191438495938
  0.8051133226882570  0.4357337225600091  0.8381442101007863
  0.1974338189303282  0.6078873716880935  0.1926814412725406
  0.7075268602938607  0.5460391292948188  0.6325445683349429
  0.9933995572169323  0.0104748089644175  0.9986545006002387
  0.0002276417503708  0.5166120032685200  0.0129003493053830
  0.9904221070602972  0.5048538504948183  0.4993588323910103
  0.4976465470302074  0.0104661939245005  0.5084088089863030
  0.0003235470782172  0.0096259865685298  0.5011303955617450
  0.4961855708792768  0.5070829134520807  0.5039577109421955
  0.5020418399575490  0.0118226340501693  0.0103772868821039
  0.4915275638884182  0.5060150638718426  0.0000017425188403

  0.00000000E+00  0.00000000E+00  0.00000000E+00
  0.00000000E+00  0.00000000E+00  0.00000000E+00
  0.00000000E+00  0.00000000E+00  0.00000000E+00
  0.00000000E+00  0.00000000E+00  0.00000000E+00
  0.00000000E+00  0.00000000E+00  0.00000000E+00
  0.00000000E+00  0.00000000E+00  0.00000000E+00
  0.00000000E+00  0.00000000E+00  0.00000000E+00
  0.00000000E+00  0.00000000E+00  0.00000000E+00
  0.00000000E+00  0.00000000E+00  0.00000000E+00
  0.00000000E+00  0.00000000E+00  0.00000000E+00
  0.00000000E+00  0.00000000E+00  0.00000000E+00
  0.00000000E+00  0.00000000E+00  0.00000000E+00
  0.00000000E+00  0.00000000E+00  0.00000000E+00
  0.00000000E+00  0.00000000E+00  0.00000000E+00
  0.00000000E+00  0.00000000E+00  0.00000000E+00
  0.00000000E+00  0.00000000E+00  0.00000000E+00
  0.00000000E+00  0.00000000E+00  0.00000000E+00
  0.00000000E+00  0.00000000E+00  0.00000000E+00
  0.00000000E+00  0.00000000E+00  0.00000000E+00
  0.00000000E+00  0.00000000E+00  0.00000000E+00
  0.00000000E+00  0.00000000E+00  0.00000000E+00
  0.00000000E+00  0.00000000E+00  0.00000000E+00
  0.00000000E+00  0.00000000E+00  0.00000000E+00
  0.00000000E+00  0.00000000E+00  0.00000000E+00
  0.00000000E+00  0.00000000E+00  0.00000000E+00
  0.00000000E+00  0.00000000E+00  0.00000000E+00
  0.00000000E+00  0.00000000E+00  0.00000000E+00
  0.00000000E+00  0.00000000E+00  0.00000000E+00
  0.00000000E+00  0.00000000E+00  0.00000000E+00
  0.00000000E+00  0.00000000E+00  0.00000000E+00
  0.00000000E+00  0.00000000E+00  0.00000000E+00
  0.00000000E+00  0.00000000E+00  0.00000000E+00
  0.00000000E+00  0.00000000E+00  0.00000000E+00
  0.00000000E+00  0.00000000E+00  0.00000000E+00
  0.00000000E+00  0.00000000E+00  0.00000000E+00
  0.00000000E+00  0.00000000E+00  0.00000000E+00
  0.00000000E+00  0.00000000E+00  0.00000000E+00
  0.00000000E+00  0.00000000E+00  0.00000000E+00
  0.00000000E+00  0.00000000E+00  0.00000000E+00
  0.00000000E+00  0.00000000E+00  0.00000000E+00
  0.00000000E+00  0.00000000E+00  0.00000000E+00
  0.00000000E+00  0.00000000E+00  0.00000000E+00
  0.00000000E+00  0.00000000E+00  0.00000000E+00
  0.00000000E+00  0.00000000E+00  0.00000000E+00
  0.00000000E+00  0.00000000E+00  0.00000000E+00
  0.00000000E+00  0.00000000E+00  0.00000000E+00
  0.00000000E+00  0.00000000E+00  0.00000000E+00
  0.00000000E+00  0.00000000E+00  0.00000000E+00
  0.00000000E+00  0.00000000E+00  0.00000000E+00
  0.00000000E+00  0.00000000E+00  0.00000000E+00
  0.00000000E+00  0.00000000E+00  0.00000000E+00
  0.00000000E+00  0.00000000E+00  0.00000000E+00
  0.00000000E+00  0.00000000E+00  0.00000000E+00
  0.00000000E+00  0.00000000E+00  0.00000000E+00
  0.00000000E+00  0.00000000E+00  0.00000000E+00
  0.00000000E+00  0.00000000E+00  0.00000000E+00
  0.00000000E+00  0.00000000E+00  0.00000000E+00
  0.00000000E+00  0.00000000E+00  0.00000000E+00
  0.00000000E+00  0.00000000E+00  0.00000000E+00
  0.00000000E+00  0.00000000E+00  0.00000000E+00
  0.00000000E+00  0.00000000E+00  0.00000000E+00
  0.00000000E+00  0.00000000E+00  0.00000000E+00
  0.00000000E+00  0.00000000E+00  0.00000000E+00
  0.00000000E+00  0.00000000E+00  0.00000000E+00
  0.00000000E+00  0.00000000E+00  0.00000000E+00
  0.00000000E+00  0.00000000E+00  0.00000000E+00
  0.00000000E+00  0.00000000E+00  0.00000000E+00
  0.00000000E+00  0.00000000E+00  0.00000000E+00
  0.00000000E+00  0.00000000E+00  0.00000000E+00
  0.00000000E+00  0.00000000E+00  0.00000000E+00
  0.00000000E+00  0.00000000E+00  0.00000000E+00
  0.00000000E+00  0.00000000E+00  0.00000000E+00
  0.00000000E+00  0.00000000E+00  0.00000000E+00
  0.00000000E+00  0.00000000E+00  0.00000000E+00
  0.00000000E+00  0.00000000E+00  0.00000000E+00
  0.00000000E+00  0.00000000E+00  0.00000000E+00
  0.00000000E+00  0.00000000E+00  0.00000000E+00
  0.00000000E+00  0.00000000E+00  0.00000000E+00
  0.00000000E+00  0.00000000E+00  0.00000000E+00
  0.00000000E+00  0.00000000E+00  0.00000000E+00
  0.00000000E+00  0.00000000E+00  0.00000000E+00
  0.00000000E+00  0.00000000E+00  0.00000000E+00
  0.00000000E+00  0.00000000E+00  0.00000000E+00
  0.00000000E+00  0.00000000E+00  0.00000000E+00
  0.00000000E+00  0.00000000E+00  0.00000000E+00
  0.00000000E+00  0.00000000E+00  0.00000000E+00
  0.00000000E+00  0.00000000E+00  0.00000000E+00
  0.00000000E+00  0.00000000E+00  0.00000000E+00
  0.00000000E+00  0.00000000E+00  0.00000000E+00
  0.00000000E+00  0.00000000E+00  0.00000000E+00
  0.00000000E+00  0.00000000E+00  0.00000000E+00
  0.00000000E+00  0.00000000E+00  0.00000000E+00
  0.00000000E+00  0.00000000E+00  0.00000000E+00
  0.00000000E+00  0.00000000E+00  0.00000000E+00
