unknown system                          
           1
    11.124743    0.000000    0.000000
    -3.719638   10.521916    0.000000
    -3.700968   -5.292107    9.075346
   La   Li   O    Ta   Zr
    12    26    48     2     6
Direct configuration= 65000
   0.24538593  0.40121716  0.11312041
   0.37594328  0.77924872  0.12097105
   0.62180227  0.24500191  0.88689209
   0.85931373  0.74770956  0.62048143
   0.75792732  0.12112752  0.38353353
   0.25408171  0.88853338  0.63317877
   0.12367586  0.25744381  0.38026311
   0.37019646  0.14483329  0.26092241
   0.59387479  0.86422205  0.74900359
   0.13576472  0.38451016  0.75082530
   0.86478446  0.62951081  0.25991755
   0.72909403  0.63007276  0.87227744
   0.41542405  0.24176214  0.03512885
   0.73398093  0.41487838  0.49380883
   0.16563236  0.71109448  0.85389004
   0.88860872  1.15822531  0.90521361
   1.68220803 -0.17243021  0.44060306
   0.80743971  1.05575577  1.14500276
  -0.42194212 -0.42931162  0.27825419
   1.11726271  0.82458412  0.06569523
  -0.07599482 -0.44732021 -0.22277938
   0.61884530  0.35274633  0.63371322
   0.34736254 -0.35875762  0.75013950
   0.87092481  0.27506951  0.14208563
   0.45173770 -0.28413871  0.39523243
   1.23107081  0.60353789  0.41131271
   0.32610659  0.20307852  0.69523634
  -0.22087911 -0.00073905  0.63641132
   0.63551581  0.37697703  0.26044557
   0.17097282 -0.08689708  0.86121780
   0.15057457  0.13687743 -0.16994260
   0.96297695  0.89064001  1.19992197
   0.37350047  0.43671174 -0.31125178
   1.20837909  0.78661088  1.32523304
   0.70244073  0.80644420  0.23123106
   0.77948404  0.28133221 -0.30910524
   1.24325840  0.05055040  0.43835782
   0.57420792 -0.24529093 -0.02352968
   0.30373027  0.33388477  0.92926074
   0.06298434  0.62763896  0.41982274
   0.90696666  0.40938970  0.61661932
   0.38688347  0.82043189  0.50838441
   0.61592092  0.19946019  0.48133619
   0.53632385  0.61944976  0.71572309
   0.17823503  0.12723630  0.01578799
   0.45570641  0.38149383  0.27603386
   0.68397561  0.70118842  0.07397140
  -0.02614705  0.70061177  0.11224145
   0.78630792  0.88565525  0.96440445
  -0.03153709  0.18248236  0.09788304
   0.86356871 -0.02128431  0.79469988
   0.45202815  0.58977233  0.16793551
   0.51169938  0.40396211  0.80967415
   0.55915010  0.89738332  0.36510555
   0.38658133  0.08156758  0.60751341
   0.89981021  0.26462954  0.32101979
   0.10856957  0.70825051  0.69285392
   0.10599010  0.03219506  0.19824712
   0.18002546  0.47239802  0.58601930
   0.82518523  0.53183239  0.42601536
   0.36975791  0.57944165  0.88973178
   0.60693859  0.41017077  0.08537341
   0.02183207  0.35168011  0.93367797
   1.00507073  0.83650118  0.89205266
   0.08143015  0.89717147  0.40381856
   0.30541380  0.91900151  1.00904120
   0.40950925  0.82847862  0.80069494
   0.31810221  0.94332382  0.29812237
   0.68162365  0.09068656  0.98226066
   0.40257110  0.30952452  0.48151921
   0.62467883  0.70964737  0.51814260
   0.92534466  0.12415716  0.63000729
   0.80093996  0.78315125  0.40335860
   0.09720696  0.63472226  0.94723533
   0.87368474  0.43570293  0.10473900
   0.16566432  0.21758893  0.58838159
   0.40646242  0.11294609  0.87128585
   0.59009275  0.93235151  0.12296420
   0.55533554  0.17835381  0.18647891
   0.09301994  0.96475880  0.67940494
   0.88827576 -0.00578655  0.31345840
   0.67965146  0.08797927  0.68825056
   0.28084138  0.46582354  0.36079703
   0.80302801  0.43499675  0.83237629
   0.19137247  0.61377407  0.20051607
   0.71886490  0.55604378  0.62826305
  -0.02142153  0.00762411 -0.00494887
  -0.00539712  0.51668646  0.03224333
   1.00672027  0.51160146  0.50645355
   0.51037904  1.02649855  0.50381750
   1.00223720  1.00430875  0.50944975
   0.49547296  0.50372817  0.48455300
   0.49696584  1.01615161  1.00666433
   0.49414355  0.50149162  1.00850700
