unknown system                          
   1.0000000000000000     
    11.1633636966944572   -0.0444531107111024   -0.1286635027020727
    -3.7744279248546535   10.4510856415208160    0.1188159292899316
    -3.7980096280315214   -5.1685081821593224    9.1273474750994019
   La   Li   O    Ta   Zr
    12    26    48     2     6
Direct
  0.2415119447497958  0.3794814721372575  0.1291810855203721
  0.3751403519251326  0.7518218204285461  0.1339842412549288
  0.6162621220827234  0.2477397567971025  0.8790656758798505
  0.8684974525176656  0.7483997727810774  0.6231631428731106
  0.7407681036567553  0.1245596373718811  0.3791514705784067
  0.2418085782750339  0.8719679841259307  0.6222169361257386
  0.1093175015667711  0.2557579319559125  0.3719551789523408
  0.3678775199211657  0.1233411025865578  0.2521101014257496
  0.6139294753916431  0.8733808364221218  0.7595314838643361
  0.1164380104168714  0.3736296119226665  0.7500156338289727
  0.8770519149074190  0.6296543011446687  0.2536485969586764
  0.7360419089623207  0.6261808801971611  0.8782204131638451
  0.6053458680055286  0.4943194767533257  0.2811652320634437
  0.9031751512449659  0.5267071407876003  0.7408734668662689
  0.3058803032992259  0.6093162225273545  0.5623657094296490
  0.8779381500842121  0.1681852464499443  0.8884590726144950
  0.4431203857170161  0.6987981056314965  0.4079843241756080
  0.7658855288839277  0.0075503277981355  0.1085593969943019
  0.6344663910276935  0.7517317240226902  0.3769505282384316
  0.1057946771884133  0.7824056164980604  0.0013284884186575
  0.1990674130072208  0.9627003430598862  0.8828117801604023
  0.7851662084692563  0.2588386206613507  0.6839150125672617
  0.1349322139270370  0.8647215538657989  0.2565454590313081
  0.8763251333679705  0.2632300141968642  0.1317044978505422
  0.2717289618707639  0.1156991750083236  0.5038456383053855
  0.2007240464480304  0.6139728903236730  0.3444851764098402
  0.5683966946855605  0.3173083845332698  0.6159314270085616
  0.0834397641544484  0.1143101098322177  0.8266379162442021
  0.7037146303518824  0.3839666962543475  0.4783322286545015
  0.2855385043059613  0.1780434767574448  0.7630695120722493
  0.7062887142021452  0.3310443788716242  0.2253212705466012
  0.3919903720646829  0.6403530063656859  0.7910131855976488
  0.2047348770939763  0.7151406099346573  0.8349410266624631
  0.9240477915166565  0.8941480040821901  0.1838205515886031
  0.7071210811077506  0.8339914923846692  0.2062610706530492
  0.7721484158687417  0.9995637241366140  0.6182916871899380
  0.3748523490667921  0.3844985420390117  0.6662124094122888
  0.4108396961207958  0.2394402597625316  0.0337901324158665
  0.2881298518165565  0.3128111066371630  0.9207423233489038
  0.0828401271056762  0.6253771765477580  0.4197436530589016
  0.8940320328062228  0.3803485152461334  0.5896675417385708
  0.3966519456795936  0.8085437197290801  0.5292021365866191
  0.5946683627385738  0.1847487325322277  0.4879809291423740
  0.5028799057625477  0.6102054604496274  0.6993330831355422
  0.1891196367891439  0.1123732124072063  0.0175117230162201
  0.4532832858002322  0.3727095649517267  0.2929436334033326
  0.7111630712972854  0.6786274795237048  0.0912487256966301
  0.9784897998082442  0.6826322633940336  0.0881609409696082
  0.7994082286210187  0.8851546112553521  0.9816312434097867
  0.0091271647677829  0.1938384002506055  0.1070717294524357
  0.8853919333784717  0.9911306213912781  0.8052086710910302
  0.4778017035086748  0.5919945608079686  0.1926120688553041
  0.5234529497010172  0.4076512955291847  0.8290224391996830
  0.5819851082164220  0.8981602373126663  0.3969862930496433
  0.4117640016500914  0.0914364636443068  0.6268611943592219
  0.8968845689109770  0.2945118880307476  0.3175099130296886
  0.0705897292934949  0.7052728151247010  0.6766102793163640
  0.1025785835404207  0.0141386896237208  0.1924591540146849
  0.1756546171642697  0.4754215962922714  0.5948976943947955
  0.7984172817270334  0.5132098394115587  0.4047465628983673
  0.3650287303483566  0.5821158537691531  0.9187810483674497
  0.6093795083711271  0.4060355741043224  0.1020596883712912
  0.0170885015376641  0.3336559792507927  0.9091717014587886
  0.9634365925380166  0.8050664597712114  0.8802548683506473
  0.0830667893306014  0.8949335944163366  0.4009203098497096
  0.2988633417056761  0.8960144398771988  0.0139713598448026
  0.3975793417395934  0.8129099553186165  0.7947103115888154
  0.3227548694146094  0.9169384449979034  0.2933163688825502
  0.6772016509102201  0.0893981839824960  0.9830852917845263
  0.3721133144000461  0.2920159417311154  0.4823909224860188
  0.6169073098681679  0.7087214708351439  0.5303692193156735
  0.9098876513437020  0.1219906481447381  0.5923565858845947
  0.8180922797540759  0.7910095514386697  0.4093140486289073
  0.0982208698216951  0.5981229900113618  0.9108112935128716
  0.8804146963140909  0.4121128106210961  0.0824276446260015
  0.1818964441377062  0.2092411257579343  0.5922512532049566
  0.3945144774909011  0.0844179438590231  0.8832790021031016
  0.5903829013298321  0.9142497038158268  0.1291824987977961
  0.5678089401525312  0.1691451666896100  0.2074114320634877
  0.0926763980326015  0.9799252349689951  0.6836912767064476
  0.8945125919126227  0.0246091620455431  0.3104565854532737
  0.6825538736191064  0.0888415359903192  0.7124390919799808
  0.2899940753345831  0.4898073080534147  0.3831993624988641
  0.7954851351261922  0.4195599300813484  0.8235047545588827
  0.1964161707901440  0.5863668849639652  0.1713650456987068
  0.6959712932654014  0.5188959372806110  0.6246045312695401
  0.9935549613680621  0.9995972313607240  0.9988061670145925
  0.9947450572213441  0.5046210702718810  0.0032275886408470
  0.9913551092717228  0.5006978416333325  0.5017630104821080
  0.4890442030881701  0.9948084703148155  0.5018942902237526
  0.9924620095547994  0.0005969878864960  0.4987619636722300
  0.4923476577800443  0.4982455940641444  0.4997453225610187
  0.4899390494178206  0.9945927931130356  0.0023223244407973
  0.4961398761710925  0.5027072690761258  0.0066887009113685

  0.00000000E+00  0.00000000E+00  0.00000000E+00
  0.00000000E+00  0.00000000E+00  0.00000000E+00
  0.00000000E+00  0.00000000E+00  0.00000000E+00
  0.00000000E+00  0.00000000E+00  0.00000000E+00
  0.00000000E+00  0.00000000E+00  0.00000000E+00
  0.00000000E+00  0.00000000E+00  0.00000000E+00
  0.00000000E+00  0.00000000E+00  0.00000000E+00
  0.00000000E+00  0.00000000E+00  0.00000000E+00
  0.00000000E+00  0.00000000E+00  0.00000000E+00
  0.00000000E+00  0.00000000E+00  0.00000000E+00
  0.00000000E+00  0.00000000E+00  0.00000000E+00
  0.00000000E+00  0.00000000E+00  0.00000000E+00
  0.00000000E+00  0.00000000E+00  0.00000000E+00
  0.00000000E+00  0.00000000E+00  0.00000000E+00
  0.00000000E+00  0.00000000E+00  0.00000000E+00
  0.00000000E+00  0.00000000E+00  0.00000000E+00
  0.00000000E+00  0.00000000E+00  0.00000000E+00
  0.00000000E+00  0.00000000E+00  0.00000000E+00
  0.00000000E+00  0.00000000E+00  0.00000000E+00
  0.00000000E+00  0.00000000E+00  0.00000000E+00
  0.00000000E+00  0.00000000E+00  0.00000000E+00
  0.00000000E+00  0.00000000E+00  0.00000000E+00
  0.00000000E+00  0.00000000E+00  0.00000000E+00
  0.00000000E+00  0.00000000E+00  0.00000000E+00
  0.00000000E+00  0.00000000E+00  0.00000000E+00
  0.00000000E+00  0.00000000E+00  0.00000000E+00
  0.00000000E+00  0.00000000E+00  0.00000000E+00
  0.00000000E+00  0.00000000E+00  0.00000000E+00
  0.00000000E+00  0.00000000E+00  0.00000000E+00
  0.00000000E+00  0.00000000E+00  0.00000000E+00
  0.00000000E+00  0.00000000E+00  0.00000000E+00
  0.00000000E+00  0.00000000E+00  0.00000000E+00
  0.00000000E+00  0.00000000E+00  0.00000000E+00
  0.00000000E+00  0.00000000E+00  0.00000000E+00
  0.00000000E+00  0.00000000E+00  0.00000000E+00
  0.00000000E+00  0.00000000E+00  0.00000000E+00
  0.00000000E+00  0.00000000E+00  0.00000000E+00
  0.00000000E+00  0.00000000E+00  0.00000000E+00
  0.00000000E+00  0.00000000E+00  0.00000000E+00
  0.00000000E+00  0.00000000E+00  0.00000000E+00
  0.00000000E+00  0.00000000E+00  0.00000000E+00
  0.00000000E+00  0.00000000E+00  0.00000000E+00
  0.00000000E+00  0.00000000E+00  0.00000000E+00
  0.00000000E+00  0.00000000E+00  0.00000000E+00
  0.00000000E+00  0.00000000E+00  0.00000000E+00
  0.00000000E+00  0.00000000E+00  0.00000000E+00
  0.00000000E+00  0.00000000E+00  0.00000000E+00
  0.00000000E+00  0.00000000E+00  0.00000000E+00
  0.00000000E+00  0.00000000E+00  0.00000000E+00
  0.00000000E+00  0.00000000E+00  0.00000000E+00
  0.00000000E+00  0.00000000E+00  0.00000000E+00
  0.00000000E+00  0.00000000E+00  0.00000000E+00
  0.00000000E+00  0.00000000E+00  0.00000000E+00
  0.00000000E+00  0.00000000E+00  0.00000000E+00
  0.00000000E+00  0.00000000E+00  0.00000000E+00
  0.00000000E+00  0.00000000E+00  0.00000000E+00
  0.00000000E+00  0.00000000E+00  0.00000000E+00
  0.00000000E+00  0.00000000E+00  0.00000000E+00
  0.00000000E+00  0.00000000E+00  0.00000000E+00
  0.00000000E+00  0.00000000E+00  0.00000000E+00
  0.00000000E+00  0.00000000E+00  0.00000000E+00
  0.00000000E+00  0.00000000E+00  0.00000000E+00
  0.00000000E+00  0.00000000E+00  0.00000000E+00
  0.00000000E+00  0.00000000E+00  0.00000000E+00
  0.00000000E+00  0.00000000E+00  0.00000000E+00
  0.00000000E+00  0.00000000E+00  0.00000000E+00
  0.00000000E+00  0.00000000E+00  0.00000000E+00
  0.00000000E+00  0.00000000E+00  0.00000000E+00
  0.00000000E+00  0.00000000E+00  0.00000000E+00
  0.00000000E+00  0.00000000E+00  0.00000000E+00
  0.00000000E+00  0.00000000E+00  0.00000000E+00
  0.00000000E+00  0.00000000E+00  0.00000000E+00
  0.00000000E+00  0.00000000E+00  0.00000000E+00
  0.00000000E+00  0.00000000E+00  0.00000000E+00
  0.00000000E+00  0.00000000E+00  0.00000000E+00
  0.00000000E+00  0.00000000E+00  0.00000000E+00
  0.00000000E+00  0.00000000E+00  0.00000000E+00
  0.00000000E+00  0.00000000E+00  0.00000000E+00
  0.00000000E+00  0.00000000E+00  0.00000000E+00
  0.00000000E+00  0.00000000E+00  0.00000000E+00
  0.00000000E+00  0.00000000E+00  0.00000000E+00
  0.00000000E+00  0.00000000E+00  0.00000000E+00
  0.00000000E+00  0.00000000E+00  0.00000000E+00
  0.00000000E+00  0.00000000E+00  0.00000000E+00
  0.00000000E+00  0.00000000E+00  0.00000000E+00
  0.00000000E+00  0.00000000E+00  0.00000000E+00
  0.00000000E+00  0.00000000E+00  0.00000000E+00
  0.00000000E+00  0.00000000E+00  0.00000000E+00
  0.00000000E+00  0.00000000E+00  0.00000000E+00
  0.00000000E+00  0.00000000E+00  0.00000000E+00
  0.00000000E+00  0.00000000E+00  0.00000000E+00
  0.00000000E+00  0.00000000E+00  0.00000000E+00
  0.00000000E+00  0.00000000E+00  0.00000000E+00
  0.00000000E+00  0.00000000E+00  0.00000000E+00
