unknown system                          
           1
    11.124743    0.000000    0.000000
    -3.719638   10.521916    0.000000
    -3.700968   -5.292107    9.075346
   La   Li   O    Ta   Zr
    12    26    48     2     6
Direct configuration= 40000
   0.23532189  0.37700856  0.13012738
   0.37828838  0.76537743  0.12913445
   0.61857650  0.24998181  0.88294045
   0.86976093  0.75680338  0.61901241
   0.74633982  0.14604656  0.37430982
   0.24825025  0.87861732  0.61437477
   0.11237076  0.26217021  0.36780514
   0.36803603  0.13093919  0.25806075
   0.60660208  0.87439046  0.75924091
   0.12061182  0.38806157  0.76860332
   0.87823328  0.63368038  0.26200330
   0.75131234  0.61930985  0.87429240
   0.60613218  0.48625492  0.26732063
   0.93753839  0.57426692  0.76338577
   0.29867883  0.60287975  0.55335025
   0.86249501  1.16533489  0.85496099
   1.43689497 -0.31633155  0.40639903
   0.75730674  0.97199145  1.10055420
  -0.37388550 -0.25004238  0.38584294
   1.09156857  0.78322593  0.01804221
   0.18990090 -0.07411410 -0.13409412
   0.75971101  0.24065269  0.65132638
   0.12040353 -0.18046684  0.23519977
   0.85498966  0.23833398  0.11309298
   0.26612343  0.13561626  0.51757155
   1.18947404  0.61832572  0.33544195
   0.56705883  0.30276799  0.62682523
   0.10562468  0.11046154  0.85174232
   0.72246409  0.41905588  0.49882178
   0.24077732  0.14592081  0.72353324
   0.71190595  0.31697722  0.18468022
   0.42390320  0.67650800  0.80530442
   0.21520119  0.70100405 -0.16317721
   0.94785617  0.89828556  1.21253524
   0.68215470  0.82669697  0.22494181
   0.75754773 -0.00940451 -0.39901372
   1.39007974  0.42465756  0.70291533
   0.39302632  0.21141549  0.02858745
   0.28950444  0.30218120  0.92271729
   0.08673859  0.64049043  0.42319070
   0.89404307  0.39708210  0.59708070
   0.39236927  0.78910321  0.51294700
   0.57250879  0.16878275  0.46695375
   0.50810219  0.61144814  0.69562826
   0.19577944  0.09686218  0.02292924
   0.47116789  0.37108676  0.28282835
   0.71540203  0.68251957  0.10585666
  -0.04360217  0.67311820  0.08125881
   0.79858692  0.87330309  0.95607607
   0.03182627  0.20636914  0.11880239
   0.90601457 -0.00396621  0.80042533
   0.49029817  0.58848565  0.19993321
   0.52756397  0.41081955  0.83729643
   0.59377922  0.90534592  0.38793761
   0.42220747  0.11365669  0.62836193
   0.91421224  0.30209034  0.30804115
   0.06297252  0.70045757  0.69921104
   0.11260526  0.02649230  0.20054826
   0.17955404  0.52389288  0.64903929
   0.79511905  0.52689136  0.41463704
   0.36202082  0.58328860  0.92800333
   0.62876811  0.41091954  0.10082722
   0.02018671  0.32915934  0.91244723
   0.96782881  0.80256809  0.88572988
   0.07304713  0.89689492  0.39682430
   0.30153211  0.88387873  1.01499930
   0.39029490  0.81920485  0.78548336
   0.31970091  0.89025932  0.29214348
   0.65907806  0.08891349  0.97210171
   0.37364841  0.29314196  0.47609738
   0.62283802  0.69844540  0.52200205
   0.90518662  0.14369794  0.59178429
   0.83087364  0.81113862  0.43505074
   0.10235336  0.60286709  0.92387115
   0.87538363  0.39174619  0.07180497
   0.17893339  0.23003994  0.59212586
   0.38803971  0.07075460  0.87184025
   0.59588040  0.92649065  0.14776277
   0.56043078  0.16522612  0.18382675
   0.10125225  0.97592935  0.68068927
   0.89408770  0.03923821  0.31524702
   0.68005073  0.08091944  0.71133886
   0.29592654  0.48037355  0.38218985
   0.79133584  0.41014042  0.81922066
   0.18170450  0.56548657  0.17095564
   0.69339255  0.53073133  0.62693996
  -0.00539722  0.01206276  0.01020617
  -0.01209575  0.49044544  0.00044746
   0.99933390  0.50759008  0.52645678
   0.49403104  0.99100838  0.49081087
   0.96922305  1.00902601  0.49560654
   0.49688992  0.49320524  0.48806269
   0.48125214  0.99638398  0.99644482
   0.50105606  0.49781770  1.01050810
