La Li  O Ta Zr 
 1.0000000000000000
    11.2096900000000002    0.0000000000000000    0.0000000000000000
    -3.7365600093697435   10.5686003818501337    0.0000000000000000
    -3.7365595337132507   -5.2843000525628332    9.1526803614310737
 La  Li  O   Ta  Zr 
  12  18  48   2   6
Direct
  0.1250000000000000  0.3750000000000000  0.7500000000000000
  0.8750000000000001  0.6250000000000000  0.2500000000000000
  0.6249990000000001  0.8750000000000000  0.7500000000000000
  0.3750000000000000  0.1250000000000000  0.2500000000000000
  0.7499990000000000  0.6249990000000000  0.8749990000000000
  0.2500000000000000  0.3750000000000000  0.1249990000000000
  0.2500000000000000  0.8750000000000000  0.6249990000000000
  0.7500000000000000  0.1249990000000000  0.3749990000000000
  0.8750000000000001  0.7500000000000000  0.6249990000000000
  0.1250000000000000  0.2500000000000000  0.3749990000000000
  0.6249990000000001  0.2500000000000000  0.8749990000000000
  0.3749990000000001  0.7500000000000000  0.1249990000000000
  0.4037000000000001  0.2347000000000000  0.0228000000000000
  0.2347000000000000  0.0228000000000000  0.4037000000000000
  0.3808990000000000  0.4772000000000000  0.7119000000000000
  0.6249990000000000  0.7500000000000000  0.3749990000000000
  0.3310000000000001  0.6191000000000000  0.5963000000000001
  0.3749990000000001  0.2499990000000000  0.6249990000000000
  0.8750000000000001  0.2499990000000000  0.1249990000000000
  0.1249990000000000  0.7500000000000000  0.8749990000000000
  0.7500000000000000  0.3750000000000000  0.6249990000000000
  0.2652990000000000  0.6690000000000000  0.7880990000000000
  0.2499990000000000  0.1249990000000000  0.8749990000000000
  0.2499990000000000  0.6250000000000000  0.3749990000000000
  0.1250000000000000  0.8750000000000000  0.2500000000000000
  0.8750000000000001  0.1250000000000000  0.7500000000000000
  0.6250000000000001  0.3750000000000000  0.2500000000000000
  0.1690000000000001  0.7653000000000000  0.2881000000000000
  0.5227989999999999  0.7346999999999999  0.9036990000000000
  0.7500000000000000  0.8750000000000000  0.1249990000000000
  0.2960989999999999  0.3182699999999999  0.9145690000000000
  0.0963000000000000  0.6184700000000000  0.4145700000000000
  0.9036999999999999  0.3815300000000000  0.5854300000000000
  0.4036990000000001  0.8182700000000001  0.5221690000000000
  0.9778300000000000  0.6817290000000000  0.0963000000000000
  0.7960990000000003  0.8815300000000001  0.9778300000000001
  0.2039000000000000  0.1184700000000000  0.0221690000000000
  0.5221690000000000  0.6184700000000000  0.7039000000000000
  0.4778300000000000  0.3815300000000000  0.2961000000000000
  0.7039000000000001  0.6817290000000000  0.0854300000000000
  0.5962990000000001  0.1817290000000000  0.4778290000000000
  0.0221700000000000  0.2039000000000000  0.1184700000000000
  0.0854290000000000  0.7039000000000000  0.6817290000000000
  0.4778300000000002  0.5963000000000001  0.1817300000000000
  0.5221700000000000  0.4037000000000000  0.8182700000000001
  0.5854300000000000  0.9036999999999999  0.3815300000000000
  0.4145700000000000  0.0963000000000000  0.6184700000000001
  0.9145700000000001  0.2961000000000000  0.3182700000000001
  0.1184700000000000  0.0221700000000000  0.2039000000000000
  0.8815300000000001  0.9778300000000001  0.7961000000000001
  0.1817290000000000  0.4778300000000000  0.5963000000000001
  0.8182699999999999  0.5221700000000000  0.4037000000000000
  0.3815289999999999  0.5854289999999999  0.9036990000000000
  0.6184700000000001  0.4145700000000000  0.0963000000000000
  0.0221690000000000  0.3182699999999999  0.9036990000000000
  0.9778289999999999  0.7961000000000000  0.8815300000000001
  0.0854299999999999  0.8815309999999998  0.4037000000000000
  0.1817300000000001  0.2039000000000000  0.5854300000000000
  0.4145690000000001  0.8182700000000001  0.7961000000000001
  0.3182700000000000  0.9036999999999999  0.0221690000000000
  0.6817299999999999  0.0963000000000000  0.9778300000000001
  0.3815300000000000  0.2960999999999999  0.4778290000000000
  0.6184690000000002  0.7038990000000001  0.5221690000000000
  0.9145700000000001  0.1184690000000000  0.5963000000000001
  0.8182699999999999  0.7961000000000000  0.4145700000000000
  0.1184689999999999  0.5962989999999999  0.9145690000000000
  0.8815300000000001  0.4037000000000000  0.0854300000000000
  0.3182690000000001  0.9145700000000001  0.2961000000000000
  0.4036990000000001  0.0854300000000001  0.8815300000000001
  0.5963000000000001  0.9145699999999999  0.1184700000000000
  0.5854300000000000  0.1817300000000000  0.2039000000000000
  0.0962990000000000  0.9778300000000001  0.6817290000000000
  0.9036999999999999  0.0221700000000000  0.3182700000000001
  0.6817299999999999  0.0854300000000000  0.7039000000000000
  0.2961000000000000  0.4778300000000000  0.3815300000000000
  0.7960990000000001  0.4145700000000000  0.8182700000000001
  0.2039000000000000  0.5854300000000000  0.1817300000000000
  0.7039000000000001  0.5221710000000002  0.6184700000000001
  0.0000000000000000  0.5000000000000000  0.5000000000000000
  0.5000000000000000  0.0000000000000000  0.0000000000000000
  0.5000000000000000  0.0000000000000000  0.5000000000000000
  0.0000000000000000  0.0000000000000000  0.0000000000000000
  0.0000000000000000  0.5000000000000000  0.0000000000000000
  0.0000000000000000  0.0000000000000000  0.5000000000000000
  0.5000000000000000  0.5000000000000000  0.5000000000000000
  0.5000000000000000  0.5000000000000000  0.0000000000000000
