La Li  O Ta Zr                          
   1.00000000000000     
    11.0806152619769982    0.0020067138388288   -0.0470284036610099
    -3.7338711909036761   10.5624063472759140   -0.0407697219914069
    -3.5459778539931763   -5.2577280233074744    9.1392797595662412
   La   Li   O    Ta   Zr
    12    22    46     2     6
Direct
  0.3940264223562195  0.1394107205778425  0.2800516309035714
  0.3843326369488267  0.7612047202524508  0.1382043608871868
  0.6220687072673030  0.2621209078366533  0.8842184795626764
  0.1300913475344245  0.2483669773462509  0.3726039986420204
  0.7499408344225458  0.1262660150271842  0.3728748391756156
  0.2427098105787451  0.8839308865638884  0.6291899452203324
  0.8652644658376758  0.7737855169327474  0.6332444996188045
  0.7293479730151375  0.6136992828568992  0.8663269357932677
  0.6112120425382130  0.8806205767005650  0.7500748458967266
  0.1313045592925803  0.3819258059622967  0.7630563549283664
  0.8674196765098543  0.6431536808382248  0.2404025281884188
  0.2466617804086653  0.3892804644732877  0.1309319251525025
  0.3715152964785702  0.2399013728290953  0.6218345247310708
  0.0137629944918984  0.1206254176810262  0.7811111639663864
  0.6285411126845588  0.7457427086253574  0.3615874572651876
  0.1653366348639338  0.8939863729843935  0.8703677914424262
  0.5164235098648007  0.7448188171964887  0.9112398096183654
  0.3305593852947410  0.6204852904994098  0.5851593857627577
  0.7474300211124998  0.9826481519768819  0.5820144581800406
  0.0880198069783376  0.4961294864585426  0.2753234896198293
  0.8216336157504855  0.2471684208037246  0.7177891156387375
  0.8868849103125669  0.1846493916130640  0.9196055810058326
  0.2492750776500330  0.7049925470084304  0.8278664987528828
  0.2108406212956737  0.7612166821548527  0.3251971886566309
  0.1195964003235801  0.8017616115853272  0.0324108217813688
  0.3885947974874071  0.4732373901159619  0.7170719316716330
  0.7543507676803927  0.8808089532496837  0.1397123229634190
  0.2777601081183363  0.1595075863062476  0.8325830777932310
  0.4021785295053419  0.6790405195537375  0.3947983872543261
  0.5630147425516867  0.3374500277478774  0.1930476590315777
  0.8536220125461256  0.2516724764411293  0.1369460712709056
  0.9710280517651313  0.5992043111029730  0.7638343204827294
  0.1186150007853044  0.9074310596629118  0.2628218469450161
  0.7242200119085922  0.3797132635923361  0.6089661068706178
  0.2820239238410593  0.3277057123543301  0.9248591215998587
  0.0498216478522053  0.6128189916240316  0.4163989356670186
  0.9021202000359878  0.4035133482505842  0.5882549345878019
  0.3853016563839162  0.8201420984186711  0.5251898545724174
  0.7663518504157310  0.8678597766985803  0.9655457205865048
  0.5117772209329345  0.6228888527755814  0.7008353598194503
  0.4459844151560759  0.3653585517628954  0.2788439876203697
  0.6961170229176901  0.6823735734992908  0.0814648966361986
  0.9803940288031399  0.6973849900560012  0.0961968715093136
  0.5988202729924694  0.1803793973612144  0.4805493833950294
  0.0181123215410253  0.2080790138514246  0.1102325532258206
  0.1348213533481228  0.0462355163586707  0.1966231767569298
  0.4588284412045951  0.5983253421867332  0.1838163919032141
  0.5148434983675472  0.4119284512387367  0.8212215716995885
  0.5866217977412518  0.9105433749289986  0.3922072471204032
  0.4155776827083955  0.0973476824270989  0.6412997780154370
  0.9285512799438251  0.3171825130176558  0.3398267441265759
  0.0711434285113128  0.6984776280828839  0.6803765682844229
  0.8779443823108224  0.9900653618351072  0.8071966986238763
  0.1881736875937037  0.4994943334039377  0.6098709014321315
  0.6266078156260591  0.4293671856893653  0.1013485963404719
  0.3769001997935320  0.5891111162188238  0.9049471736546906
  0.0161775730171598  0.3240945555404480  0.8994942617419994
  0.9896854559056152  0.8209396268821649  0.8877144119162637
  0.0936377961405341  0.8867892896911798  0.4153870096657712
  0.3850487081359972  0.3094046217312538  0.4858078098099696
  0.4091370654216462  0.8270736650019046  0.8100840934669549
  0.3184861716236966  0.9166705980368164  0.0274878344596772
  0.6653443995666279  0.0969695056909927  0.9739997470528579
  0.3140731323863477  0.9162199235782325  0.2996863939605703
  0.6097081855286604  0.7205212208439988  0.5259596329601308
  0.9109842314668128  0.1270903440666658  0.5999102629494786
  0.8290219997589219  0.7984922125841649  0.4234881459435726
  0.1250503559392655  0.6121600679608576  0.9211667643039689
  0.8870500648913122  0.4116680960016552  0.0898526994055260
  0.1808660927033898  0.2237741153977097  0.5923703204015638
  0.3957568184226616  0.0858567119151346  0.8972735976812132
  0.5852854138144608  0.9188885951055283  0.1119417155572862
  0.5870134640885638  0.1811976306637675  0.2062894201780310
  0.0915174589819188  0.9936377492447619  0.6968380030220374
  0.9130539665861050  0.0374737499585081  0.3249848040369798
  0.6821955764387013  0.0886083366981794  0.7097743000325565
  0.2919798790823123  0.4910108319116944  0.3911831773480543
  0.7962418542288319  0.4200709028096696  0.8157786351074847
  0.1999550785553552  0.5931473823681230  0.1932987583806494
  0.7148446432292346  0.5484153742078206  0.6189917962955818
  0.0169201895483440  0.5016986597399438  0.5172585789114237
  0.4996500327877413  0.0141990935512979  0.0091537234168655
  0.4952828850050182  0.0104470618891881  0.5101017336944977
  0.9625637206037325  0.9886808188049088  0.0040527021920482
  0.9982461448610138  0.5111043730839029  0.0028554806127374
  0.0053286622629756  0.0106179788904228  0.5000642175750656
  0.5008229353118665  0.5042506049036461  0.4955673803942844
  0.4978690662751006  0.5076643256749946  0.0120288906339709
 
  0.00000000E+00  0.00000000E+00  0.00000000E+00
  0.00000000E+00  0.00000000E+00  0.00000000E+00
  0.00000000E+00  0.00000000E+00  0.00000000E+00
  0.00000000E+00  0.00000000E+00  0.00000000E+00
  0.00000000E+00  0.00000000E+00  0.00000000E+00
  0.00000000E+00  0.00000000E+00  0.00000000E+00
  0.00000000E+00  0.00000000E+00  0.00000000E+00
  0.00000000E+00  0.00000000E+00  0.00000000E+00
  0.00000000E+00  0.00000000E+00  0.00000000E+00
  0.00000000E+00  0.00000000E+00  0.00000000E+00
  0.00000000E+00  0.00000000E+00  0.00000000E+00
  0.00000000E+00  0.00000000E+00  0.00000000E+00
  0.00000000E+00  0.00000000E+00  0.00000000E+00
  0.00000000E+00  0.00000000E+00  0.00000000E+00
  0.00000000E+00  0.00000000E+00  0.00000000E+00
  0.00000000E+00  0.00000000E+00  0.00000000E+00
  0.00000000E+00  0.00000000E+00  0.00000000E+00
  0.00000000E+00  0.00000000E+00  0.00000000E+00
  0.00000000E+00  0.00000000E+00  0.00000000E+00
  0.00000000E+00  0.00000000E+00  0.00000000E+00
  0.00000000E+00  0.00000000E+00  0.00000000E+00
  0.00000000E+00  0.00000000E+00  0.00000000E+00
  0.00000000E+00  0.00000000E+00  0.00000000E+00
  0.00000000E+00  0.00000000E+00  0.00000000E+00
  0.00000000E+00  0.00000000E+00  0.00000000E+00
  0.00000000E+00  0.00000000E+00  0.00000000E+00
  0.00000000E+00  0.00000000E+00  0.00000000E+00
  0.00000000E+00  0.00000000E+00  0.00000000E+00
  0.00000000E+00  0.00000000E+00  0.00000000E+00
  0.00000000E+00  0.00000000E+00  0.00000000E+00
  0.00000000E+00  0.00000000E+00  0.00000000E+00
  0.00000000E+00  0.00000000E+00  0.00000000E+00
  0.00000000E+00  0.00000000E+00  0.00000000E+00
  0.00000000E+00  0.00000000E+00  0.00000000E+00
  0.00000000E+00  0.00000000E+00  0.00000000E+00
  0.00000000E+00  0.00000000E+00  0.00000000E+00
  0.00000000E+00  0.00000000E+00  0.00000000E+00
  0.00000000E+00  0.00000000E+00  0.00000000E+00
  0.00000000E+00  0.00000000E+00  0.00000000E+00
  0.00000000E+00  0.00000000E+00  0.00000000E+00
  0.00000000E+00  0.00000000E+00  0.00000000E+00
  0.00000000E+00  0.00000000E+00  0.00000000E+00
  0.00000000E+00  0.00000000E+00  0.00000000E+00
  0.00000000E+00  0.00000000E+00  0.00000000E+00
  0.00000000E+00  0.00000000E+00  0.00000000E+00
  0.00000000E+00  0.00000000E+00  0.00000000E+00
  0.00000000E+00  0.00000000E+00  0.00000000E+00
  0.00000000E+00  0.00000000E+00  0.00000000E+00
  0.00000000E+00  0.00000000E+00  0.00000000E+00
  0.00000000E+00  0.00000000E+00  0.00000000E+00
  0.00000000E+00  0.00000000E+00  0.00000000E+00
  0.00000000E+00  0.00000000E+00  0.00000000E+00
  0.00000000E+00  0.00000000E+00  0.00000000E+00
  0.00000000E+00  0.00000000E+00  0.00000000E+00
  0.00000000E+00  0.00000000E+00  0.00000000E+00
  0.00000000E+00  0.00000000E+00  0.00000000E+00
  0.00000000E+00  0.00000000E+00  0.00000000E+00
  0.00000000E+00  0.00000000E+00  0.00000000E+00
  0.00000000E+00  0.00000000E+00  0.00000000E+00
  0.00000000E+00  0.00000000E+00  0.00000000E+00
  0.00000000E+00  0.00000000E+00  0.00000000E+00
  0.00000000E+00  0.00000000E+00  0.00000000E+00
  0.00000000E+00  0.00000000E+00  0.00000000E+00
  0.00000000E+00  0.00000000E+00  0.00000000E+00
  0.00000000E+00  0.00000000E+00  0.00000000E+00
  0.00000000E+00  0.00000000E+00  0.00000000E+00
  0.00000000E+00  0.00000000E+00  0.00000000E+00
  0.00000000E+00  0.00000000E+00  0.00000000E+00
  0.00000000E+00  0.00000000E+00  0.00000000E+00
  0.00000000E+00  0.00000000E+00  0.00000000E+00
  0.00000000E+00  0.00000000E+00  0.00000000E+00
  0.00000000E+00  0.00000000E+00  0.00000000E+00
  0.00000000E+00  0.00000000E+00  0.00000000E+00
  0.00000000E+00  0.00000000E+00  0.00000000E+00
  0.00000000E+00  0.00000000E+00  0.00000000E+00
  0.00000000E+00  0.00000000E+00  0.00000000E+00
  0.00000000E+00  0.00000000E+00  0.00000000E+00
  0.00000000E+00  0.00000000E+00  0.00000000E+00
  0.00000000E+00  0.00000000E+00  0.00000000E+00
  0.00000000E+00  0.00000000E+00  0.00000000E+00
  0.00000000E+00  0.00000000E+00  0.00000000E+00
  0.00000000E+00  0.00000000E+00  0.00000000E+00
  0.00000000E+00  0.00000000E+00  0.00000000E+00
  0.00000000E+00  0.00000000E+00  0.00000000E+00
  0.00000000E+00  0.00000000E+00  0.00000000E+00
  0.00000000E+00  0.00000000E+00  0.00000000E+00
  0.00000000E+00  0.00000000E+00  0.00000000E+00
  0.00000000E+00  0.00000000E+00  0.00000000E+00
