La Li  O Ta Zr                          
   1.00000000000000     
    11.1167050295138576   -0.0219881743994924   -0.0521068702447861
    -3.7379863897615837   10.4778844170763161    0.0639162800594182
    -3.7307436457975123   -5.2188122684457516    9.0962884240206190
   La   Li   O    Ta   Zr
    12    26    48     2     6
Direct
  0.2468264140886376  0.3757900646541046  0.1178262477620748
  0.3843572353697056  0.7608414312228362  0.1349451550396736
  0.6248349065576591  0.2594950496943298  0.8823557268598918
  0.8652263059536764  0.7566377593810074  0.6213820043367733
  0.7454652257165151  0.1268236556462270  0.3705832454274898
  0.2459816980409713  0.8923940200189264  0.6358307022795131
  0.1085344716357284  0.2545329188923517  0.3660009159926858
  0.3687342420677737  0.1270195096073152  0.2498941888295718
  0.6111164118528407  0.8765076509462659  0.7530173293035034
  0.1239683801342437  0.3836756746561534  0.7466459273281387
  0.8782276950625985  0.6452277968752966  0.2543081893717059
  0.7429804212920672  0.6382827545456280  0.8804336653673488
  0.4796815586953684  0.2654996896531401  0.0920608872316961
  0.7335264822170728  0.3475403185412631  0.2349283670308751
  0.7894033594258758  0.2678761148631352  0.6775879779366463
  0.0177004204696374  0.1135294278565837  0.7764544800246682
  0.4124619782700236  0.6827204737727328  0.3902740349142420
  0.8575972547260662  0.2345437443606002  0.1180104744231443
  0.6148485905385570  0.5161532531433721  0.2886939611869153
  0.1093103327454443  0.7829714637601768  0.0134030759595021
  0.9119651790953327  0.5392702715504143  0.7421215842927467
  0.5673861274817114  0.3269059934718683  0.6138802820271962
  0.2202270685311802  0.7214131015093272  0.8342998385333757
  0.0865460244013079  0.4870848088791249  0.2631543779984682
  0.2101265406387611  0.7514787243839081  0.3313173775089950
  0.2803150407540258  0.6225974268143375  0.5263083882498520
  0.3316027779390467  0.2338784701811321  0.7467473359418193
  0.7559932641064719  0.9983431964982685  0.6000346492130291
  0.8745583312766598  0.1768244475121392  0.8903832457992991
  0.1592730730972320  0.9156552311767641  0.8877791378132329
  0.2461392380214349  0.1328459203420991  0.8762928114717710
  0.7483460736300600  0.8852891199238471  0.1292073176695610
  0.3829906031259327  0.4071071203223084  0.6610963189655550
  0.1058278189043875  0.8899475506285128  0.2444952268265510
  0.6343793372919109  0.7636496708979337  0.3668332216217891
  0.7053621451249796  0.3896503098317083  0.4740343209646625
  0.2735228524186013  0.1179875829726456  0.4946121620628929
  0.3849518336607005  0.6415987450927929  0.7725213037960614
  0.2939349326892327  0.3223164887813965  0.9093778622063908
  0.0957928284015424  0.6349362251417077  0.4181114001354018
  0.8989899428604744  0.3883900045250925  0.5876908798549394
  0.3948853368961451  0.8237535505700322  0.5253685388299374
  0.5932352827225742  0.1930144449271154  0.4813501444702126
  0.5090691214371077  0.6156230621448842  0.6970458901255299
  0.1841013097247384  0.1109122587829035  0.0088831818533492
  0.4601752821521927  0.3749474089998230  0.2848870950496121
  0.7104654435539501  0.6868630488823015  0.0864735023795049
  0.9888454130495106  0.6869486384388424  0.0957392279772264
  0.7928039592173874  0.8892691769889325  0.9714535225443939
  0.0107181461025405  0.2046257794149540  0.1009764378824016
  0.8736843078302954  0.9895289187396230  0.7997014330392531
  0.4737996115666689  0.5951031046341200  0.1886272198830312
  0.5209094689327927  0.4138065053460451  0.8222528392864987
  0.5848475796659329  0.9140863720501571  0.3953374479087444
  0.4164446858106814  0.1106229140488040  0.6346844495028137
  0.9075554258649632  0.3151019779977915  0.3162422685123616
  0.0760627553020683  0.7193696380572661  0.6853979270226276
  0.1081125590624694  0.0365568525593289  0.1956489334218503
  0.1826232588112759  0.4915227854810738  0.5967463526973305
  0.8073702339790714  0.5277355542713096  0.4087690975867844
  0.3712391494340537  0.5946639848468678  0.9155489323667183
  0.6261759136972742  0.4267872391407650  0.1079901188972343
  0.0241449259798898  0.3356065875496839  0.9060066973828427
  0.9736837567616305  0.8138274109511059  0.8878819275792722
  0.0972437006804725  0.9021999461982517  0.4133526993217487
  0.3056954288806395  0.9015163031812037  0.0214824649528751
  0.3953098902710579  0.8204872540740169  0.7928181686774209
  0.3084523688598111  0.9199357647504840  0.2996686343449255
  0.6681426669422024  0.0938732838857703  0.9630957678422121
  0.3759789449834372  0.2982373344874389  0.4772833541200612
  0.6081520008430346  0.7099275695149316  0.5165172159995990
  0.9153199288802014  0.1277243757573245  0.6012726994287405
  0.8240082289929305  0.7974151249741581  0.4140798962371832
  0.1055950582248428  0.6021612545082391  0.9128226541779441
  0.8931996322259650  0.4111696231076252  0.0855722693176162
  0.1848265285136392  0.2188148456042001  0.5851753461987457
  0.4039153141362277  0.1028266380673628  0.8949765091429001
  0.5879709546770471  0.9217843098545018  0.1284078252810943
  0.5773084598774645  0.1856983033471451  0.2040601002706453
  0.0882999075366229  0.9905592898820004  0.6869615287237636
  0.9056904836300035  0.0459088417879912  0.3252669397056565
  0.6845217777028978  0.1011890722346465  0.7086550975946153
  0.2849049407418107  0.4843414340547838  0.3726960829570132
  0.8031575569450737  0.4286534837079614  0.8268917568917686
  0.1966316273479691  0.5904703304941989  0.1800127874980078
  0.6984054803790229  0.5277546206930310  0.6222232427397074
  0.9876559126139455  0.0066438904200581  0.0004813817780942
  0.9999406360527416  0.5067341101343530  0.0008134249232938
  0.9984879484319720  0.5146418593708475  0.5059938815030094
  0.4935599643388855  0.0106613392717065  0.5054728124588692
  0.9939899917186281  0.0069837219001911  0.4935089292178034
  0.4921833774853752  0.5038361304348058  0.4940142468311919
  0.4985224360688392  0.0019839502362444  0.0023252407887071
  0.5032776594158790  0.5180173090611078  0.0075800507400317
 
  0.00000000E+00  0.00000000E+00  0.00000000E+00
  0.00000000E+00  0.00000000E+00  0.00000000E+00
  0.00000000E+00  0.00000000E+00  0.00000000E+00
  0.00000000E+00  0.00000000E+00  0.00000000E+00
  0.00000000E+00  0.00000000E+00  0.00000000E+00
  0.00000000E+00  0.00000000E+00  0.00000000E+00
  0.00000000E+00  0.00000000E+00  0.00000000E+00
  0.00000000E+00  0.00000000E+00  0.00000000E+00
  0.00000000E+00  0.00000000E+00  0.00000000E+00
  0.00000000E+00  0.00000000E+00  0.00000000E+00
  0.00000000E+00  0.00000000E+00  0.00000000E+00
  0.00000000E+00  0.00000000E+00  0.00000000E+00
  0.00000000E+00  0.00000000E+00  0.00000000E+00
  0.00000000E+00  0.00000000E+00  0.00000000E+00
  0.00000000E+00  0.00000000E+00  0.00000000E+00
  0.00000000E+00  0.00000000E+00  0.00000000E+00
  0.00000000E+00  0.00000000E+00  0.00000000E+00
  0.00000000E+00  0.00000000E+00  0.00000000E+00
  0.00000000E+00  0.00000000E+00  0.00000000E+00
  0.00000000E+00  0.00000000E+00  0.00000000E+00
  0.00000000E+00  0.00000000E+00  0.00000000E+00
  0.00000000E+00  0.00000000E+00  0.00000000E+00
  0.00000000E+00  0.00000000E+00  0.00000000E+00
  0.00000000E+00  0.00000000E+00  0.00000000E+00
  0.00000000E+00  0.00000000E+00  0.00000000E+00
  0.00000000E+00  0.00000000E+00  0.00000000E+00
  0.00000000E+00  0.00000000E+00  0.00000000E+00
  0.00000000E+00  0.00000000E+00  0.00000000E+00
  0.00000000E+00  0.00000000E+00  0.00000000E+00
  0.00000000E+00  0.00000000E+00  0.00000000E+00
  0.00000000E+00  0.00000000E+00  0.00000000E+00
  0.00000000E+00  0.00000000E+00  0.00000000E+00
  0.00000000E+00  0.00000000E+00  0.00000000E+00
  0.00000000E+00  0.00000000E+00  0.00000000E+00
  0.00000000E+00  0.00000000E+00  0.00000000E+00
  0.00000000E+00  0.00000000E+00  0.00000000E+00
  0.00000000E+00  0.00000000E+00  0.00000000E+00
  0.00000000E+00  0.00000000E+00  0.00000000E+00
  0.00000000E+00  0.00000000E+00  0.00000000E+00
  0.00000000E+00  0.00000000E+00  0.00000000E+00
  0.00000000E+00  0.00000000E+00  0.00000000E+00
  0.00000000E+00  0.00000000E+00  0.00000000E+00
  0.00000000E+00  0.00000000E+00  0.00000000E+00
  0.00000000E+00  0.00000000E+00  0.00000000E+00
  0.00000000E+00  0.00000000E+00  0.00000000E+00
  0.00000000E+00  0.00000000E+00  0.00000000E+00
  0.00000000E+00  0.00000000E+00  0.00000000E+00
  0.00000000E+00  0.00000000E+00  0.00000000E+00
  0.00000000E+00  0.00000000E+00  0.00000000E+00
  0.00000000E+00  0.00000000E+00  0.00000000E+00
  0.00000000E+00  0.00000000E+00  0.00000000E+00
  0.00000000E+00  0.00000000E+00  0.00000000E+00
  0.00000000E+00  0.00000000E+00  0.00000000E+00
  0.00000000E+00  0.00000000E+00  0.00000000E+00
  0.00000000E+00  0.00000000E+00  0.00000000E+00
  0.00000000E+00  0.00000000E+00  0.00000000E+00
  0.00000000E+00  0.00000000E+00  0.00000000E+00
  0.00000000E+00  0.00000000E+00  0.00000000E+00
  0.00000000E+00  0.00000000E+00  0.00000000E+00
  0.00000000E+00  0.00000000E+00  0.00000000E+00
  0.00000000E+00  0.00000000E+00  0.00000000E+00
  0.00000000E+00  0.00000000E+00  0.00000000E+00
  0.00000000E+00  0.00000000E+00  0.00000000E+00
  0.00000000E+00  0.00000000E+00  0.00000000E+00
  0.00000000E+00  0.00000000E+00  0.00000000E+00
  0.00000000E+00  0.00000000E+00  0.00000000E+00
  0.00000000E+00  0.00000000E+00  0.00000000E+00
  0.00000000E+00  0.00000000E+00  0.00000000E+00
  0.00000000E+00  0.00000000E+00  0.00000000E+00
  0.00000000E+00  0.00000000E+00  0.00000000E+00
  0.00000000E+00  0.00000000E+00  0.00000000E+00
  0.00000000E+00  0.00000000E+00  0.00000000E+00
  0.00000000E+00  0.00000000E+00  0.00000000E+00
  0.00000000E+00  0.00000000E+00  0.00000000E+00
  0.00000000E+00  0.00000000E+00  0.00000000E+00
  0.00000000E+00  0.00000000E+00  0.00000000E+00
  0.00000000E+00  0.00000000E+00  0.00000000E+00
  0.00000000E+00  0.00000000E+00  0.00000000E+00
  0.00000000E+00  0.00000000E+00  0.00000000E+00
  0.00000000E+00  0.00000000E+00  0.00000000E+00
  0.00000000E+00  0.00000000E+00  0.00000000E+00
  0.00000000E+00  0.00000000E+00  0.00000000E+00
  0.00000000E+00  0.00000000E+00  0.00000000E+00
  0.00000000E+00  0.00000000E+00  0.00000000E+00
  0.00000000E+00  0.00000000E+00  0.00000000E+00
  0.00000000E+00  0.00000000E+00  0.00000000E+00
  0.00000000E+00  0.00000000E+00  0.00000000E+00
  0.00000000E+00  0.00000000E+00  0.00000000E+00
  0.00000000E+00  0.00000000E+00  0.00000000E+00
  0.00000000E+00  0.00000000E+00  0.00000000E+00
  0.00000000E+00  0.00000000E+00  0.00000000E+00
  0.00000000E+00  0.00000000E+00  0.00000000E+00
  0.00000000E+00  0.00000000E+00  0.00000000E+00
  0.00000000E+00  0.00000000E+00  0.00000000E+00
