unknown system                          
           1
    11.103019    0.000000    0.000000
    -3.743413   10.541319    0.000000
    -3.513637   -5.197313    9.109288
   La   Li   O    Ta   Zr
    12    22    46     2     6
Direct configuration= 65000
   0.41836920  0.14448650  0.28484895
   0.39984886  0.77116587  0.14030500
   0.64057105  0.25369615  0.87234954
   0.16877514  0.27409865  0.39237131
   0.75286605  0.12936158  0.40005867
   0.24113043  0.86974602  0.62773140
   0.88178932  0.77545286  0.65101857
   0.73612966  0.63808006  0.87457203
   0.62192845  0.87500939  0.74851677
   0.12638402  0.37618250  0.75252923
   0.88083244  0.65024122  0.25237655
   0.23842778  0.36979243  0.11630663
   0.14908470  0.74723501  0.86009686
   0.75430014  0.96345069  0.57517469
   0.56736676  0.50070211  0.28097546
   0.14071523  0.82746847  0.07234792
  -0.43542784 -0.22639865 -0.05804583
   0.29027005  0.63951894  0.39965963
  -0.36040988 -0.23700982  0.38731539
   0.72951809  0.32605054  0.17648894
   0.82371413  0.23768746  0.71660526
   0.91866321  0.21854394  0.95808550
   0.84949414  0.49475982  0.70452995
   0.01914819  0.43780221  0.24342286
   0.06413998  0.93576737  0.25518489
   0.36048063  0.63062587  0.72783619
  -0.24712863 -0.11429422  0.17401982
   1.02888480  0.13002738  0.76866183
   0.17109988  0.76802067  0.27824740
   0.46963383  0.29017932  0.06611725
   0.84861270  0.14797197  0.13378704
   0.59985459  0.31815905  0.60426058
   0.26771945  0.13666817  0.84030735
   0.37984890  0.24257511  0.65456831
   0.29957656  0.31202111  0.92256171
   0.06880607  0.60662265  0.39564704
   0.93616555  0.42441705  0.61744164
   0.39786683  0.83798688  0.53703159
   0.77930037  0.88823995  0.97662230
   0.50672300  0.62392620  0.69280128
   0.43171351  0.32862429  0.23016891
   0.70389517  0.70778445  0.08790303
  -0.01915817  0.70193731  0.10597923
   0.61242239  0.17532659  0.48738997
   0.02305605  0.21820527  0.12507739
   0.14150031  0.06809827  0.20334998
   0.49110243  0.60037277  0.19000328
   0.54605699  0.41826099  0.82967357
   0.60038792  0.91885080  0.39249340
   0.42263609  0.11007519  0.61930957
   0.88737823  0.31904433  0.30684146
   0.05470191  0.70273429  0.64888818
   0.90038390  0.99698131  0.80716492
   0.16885461  0.49515346  0.58186923
   0.65567230  0.46411796  0.14495388
   0.36884500  0.58769903  0.89210657
   0.01433690  0.31252889  0.88873699
   0.98322368  0.80676179  0.89753645
   0.11516434  0.90660300  0.42139633
   0.41421985  0.30885765  0.47460596
   0.39360614  0.82881767  0.80041083
   0.32870276  0.92151963  0.04115329
   0.67385560  0.07608540  0.97612386
   0.31539164  0.89119488  0.28104648
   0.62508551  0.69534916  0.51290561
   0.90538086  0.12406347  0.60170531
   0.84292136  0.80340456  0.42529157
   0.12495837  0.62257911  0.92948584
   0.87738018  0.40358444  0.08739950
   0.16947592  0.21803939  0.58708134
   0.42429682  0.11662137  0.92594566
   0.58882753  0.92001075  0.13459664
   0.59421246  0.17503395  0.20055479
   0.10583491  0.99063989  0.69081343
   0.92756463  0.02873035  0.29546725
   0.68023198  0.09429882  0.71911593
   0.29457948  0.47200434  0.37637583
   0.79553849  0.41430720  0.81443139
   0.19780231  0.57410451  0.17200706
   0.71942155  0.54704717  0.62990752
   1.00873281  0.50541569  0.50242088
   0.49433943  0.00655573  0.00044104
   0.49730329  1.00202713  0.51163185
   0.97465938  0.99202817  1.01374681
   0.00375611  0.51050683  0.98724788
   0.01905063  0.01157390  0.49390702
   0.52079287  0.51539761  0.51088358
   0.49615847  0.51626454 -0.00375423
