unknown system                          
   1.00000000000000     
    11.1244912734031711   -0.0381780957436894   -0.0163280004437568
    -3.7860335490691117   10.5329610406436469   -0.0310070033640151
    -3.5158373828047020   -5.2059891109386642    9.1500250824708846
   La   Li   O    Ta   Zr
    12    22    46     2     6
Direct
  0.4025815893782791  0.1480411071159935  0.2838610855648653
  0.3875246277378324  0.7606668532252101  0.1421856573325329
  0.6218975883805555  0.2546437557056151  0.8706340148836134
  0.1452713698227370  0.2533629263900323  0.3825745264062093
  0.7494758550637144  0.1277081774042870  0.3808987181917942
  0.2393649535495683  0.8828297149771842  0.6280301959174324
  0.8750755442890465  0.7766365469957890  0.6420120629233494
  0.7332356017230452  0.6145899846986964  0.8602156155910734
  0.6016934242295164  0.8722612907030651  0.7410443776234814
  0.1401883622097699  0.3832976313471335  0.7603750727858127
  0.8730762625072046  0.6456359662724864  0.2372094456536189
  0.2500665357693137  0.3985366128471384  0.1380226643504514
  0.2189550655732475  0.7425462589106715  0.8445180679474760
  0.7509397512692644  0.9883783543986553  0.5918420166740788
  0.5945922271944397  0.5317771962736728  0.2802835782731492
  0.1220732073513062  0.8099430895793347  0.0240770708119840
  0.5647394583117915  0.7643446304002737  0.9611804704906888
  0.2641612241061040  0.6289888133903005  0.3994662649162777
  0.6258082746881115  0.7624316156427753  0.3757546151504840
  0.7405404897213828  0.3018280718701547  0.1721742553087537
  0.8284882559313118  0.2489805406329495  0.7186335232350558
  0.8861506228373344  0.1873344206386918  0.9274702080063122
  0.9572007199902615  0.5779071446547945  0.7518549507897418
  0.0011471619294738  0.4008266226373607  0.2203204734575266
  0.1250453859154206  0.9172895688868365  0.2638351627724091
  0.3685208074340025  0.6175614847238151  0.7362125035532827
  0.7733279909499231  0.8847547423723370  0.1585277410835602
  0.0164222723907912  0.1247334598263450  0.7836750429383059
  0.1858689157790607  0.7576003630293897  0.2952761117783709
  0.4900820528421193  0.2782422012041366  0.1100023704535431
  0.8217183028136859  0.1109016470216702  0.1207497602799705
  0.7222050837026330  0.3769387015761296  0.6021707433658605
  0.2768895805652676  0.1597962944326596  0.8199242731207548
  0.3796547935906318  0.2579182733162213  0.6322286107101220
  0.2895180237805306  0.3298612215605914  0.9280111397064417
  0.0671107309465171  0.6061040534607542  0.4052300244841192
  0.9048968334325025  0.3943266985043650  0.5812162293144425
  0.3885883235656706  0.8264770651184676  0.5328801303026864
  0.7751984493836943  0.8936045147706793  0.9871576921003040
  0.5313495996082835  0.6327529805731800  0.7126293664939709
  0.4548297433714268  0.3763672233901687  0.2766094769338281
  0.6990851225784809  0.6848918923784026  0.0751971709112951
  0.9977038377945249  0.7041797124343816  0.1068272550880991
  0.5980561520550864  0.1806693411904945  0.4800864381538474
  0.0112850600943801  0.2084711696414772  0.1157039141652021
  0.1429426737965329  0.0508016502150213  0.1917599163759789
  0.4759110888205669  0.6009826582664815  0.1878399122045380
  0.5315671821761399  0.4067418653649995  0.8312657436917945
  0.5924719664785059  0.9190754843469975  0.3944864491404090
  0.4103712607062775  0.0963861386192661  0.6351844384850196
  0.9048987357019129  0.3145812405104493  0.3171131314191911
  0.0527115870428787  0.6822341238856424  0.6566502389348372
  0.8822782581502153  0.9940953060620643  0.8103371864826059
  0.1784537288600987  0.4807751754832523  0.5930083693223978
  0.6310738265293168  0.4378098507815338  0.1244852889772545
  0.3879584009853829  0.5977769987263244  0.9115774884541210
  0.0200743114735147  0.3262747457501334  0.9018494948810343
  0.9596621446305207  0.7991467436394402  0.8837152309189165
  0.0911965020893959  0.8860407168128503  0.4117878011054543
  0.3910174626528971  0.3081064338818038  0.4829946924102160
  0.4010397984440885  0.8234174409823112  0.8136008616716950
  0.3226431018299536  0.9195152132402313  0.0348619151083795
  0.6657923873541520  0.1004327157551685  0.9795027175435962
  0.3173858770798361  0.9186096253823663  0.2988980537438479
  0.6228995671859323  0.7247881282034214  0.5337222462457518
  0.9126705936750881  0.1278185845145643  0.6021571319431871
  0.8226471228326488  0.7876236929714366  0.4162854348940073
  0.1271612649758538  0.6152876666303158  0.9167982524404792
  0.8710278767109756  0.4149969375177633  0.0781827924426466
  0.1807179153091738  0.2154049401067937  0.5934165762542776
  0.4069941518930591  0.1005033013451353  0.9046748841573518
  0.5948616648171168  0.9294757925477981  0.1205469820290830
  0.5856305755623126  0.1870984785678971  0.1992191119808950
  0.0902267856235923  0.9946277924924374  0.6896327843971903
  0.9178861255112238  0.0488692512315438  0.3285714585822959
  0.6807227721063853  0.0904458176344818  0.7096605445971917
  0.2886545962710301  0.4725235061124877  0.3836528919350854
  0.8072579653644212  0.4273916599033214  0.8095861997770299
  0.2001247922124350  0.5933797240239755  0.1895192497280576
  0.7115704442927395  0.5416519830110573  0.6094233727934650
  0.0175045977782489  0.4970759280230723  0.5073176557496524
  0.4905690164096512  0.0078490950238859  0.0055086853891595
  0.4895780818343951  0.0057110175172355  0.5061359523450975
  0.9666721379806802  0.9895083301719794  0.0025626134046774
  0.0012766451312771  0.5130132734501416  0.9990215341583735
  0.0026052443511375  0.0080861364587932  0.4989794954600413
  0.5012761339557628  0.5123143184726047  0.5022216708306004
  0.4997371272534394  0.5060723602367361  0.0020232175969284
 
  0.00000000E+00  0.00000000E+00  0.00000000E+00
  0.00000000E+00  0.00000000E+00  0.00000000E+00
  0.00000000E+00  0.00000000E+00  0.00000000E+00
  0.00000000E+00  0.00000000E+00  0.00000000E+00
  0.00000000E+00  0.00000000E+00  0.00000000E+00
  0.00000000E+00  0.00000000E+00  0.00000000E+00
  0.00000000E+00  0.00000000E+00  0.00000000E+00
  0.00000000E+00  0.00000000E+00  0.00000000E+00
  0.00000000E+00  0.00000000E+00  0.00000000E+00
  0.00000000E+00  0.00000000E+00  0.00000000E+00
  0.00000000E+00  0.00000000E+00  0.00000000E+00
  0.00000000E+00  0.00000000E+00  0.00000000E+00
  0.00000000E+00  0.00000000E+00  0.00000000E+00
  0.00000000E+00  0.00000000E+00  0.00000000E+00
  0.00000000E+00  0.00000000E+00  0.00000000E+00
  0.00000000E+00  0.00000000E+00  0.00000000E+00
  0.00000000E+00  0.00000000E+00  0.00000000E+00
  0.00000000E+00  0.00000000E+00  0.00000000E+00
  0.00000000E+00  0.00000000E+00  0.00000000E+00
  0.00000000E+00  0.00000000E+00  0.00000000E+00
  0.00000000E+00  0.00000000E+00  0.00000000E+00
  0.00000000E+00  0.00000000E+00  0.00000000E+00
  0.00000000E+00  0.00000000E+00  0.00000000E+00
  0.00000000E+00  0.00000000E+00  0.00000000E+00
  0.00000000E+00  0.00000000E+00  0.00000000E+00
  0.00000000E+00  0.00000000E+00  0.00000000E+00
  0.00000000E+00  0.00000000E+00  0.00000000E+00
  0.00000000E+00  0.00000000E+00  0.00000000E+00
  0.00000000E+00  0.00000000E+00  0.00000000E+00
  0.00000000E+00  0.00000000E+00  0.00000000E+00
  0.00000000E+00  0.00000000E+00  0.00000000E+00
  0.00000000E+00  0.00000000E+00  0.00000000E+00
  0.00000000E+00  0.00000000E+00  0.00000000E+00
  0.00000000E+00  0.00000000E+00  0.00000000E+00
  0.00000000E+00  0.00000000E+00  0.00000000E+00
  0.00000000E+00  0.00000000E+00  0.00000000E+00
  0.00000000E+00  0.00000000E+00  0.00000000E+00
  0.00000000E+00  0.00000000E+00  0.00000000E+00
  0.00000000E+00  0.00000000E+00  0.00000000E+00
  0.00000000E+00  0.00000000E+00  0.00000000E+00
  0.00000000E+00  0.00000000E+00  0.00000000E+00
  0.00000000E+00  0.00000000E+00  0.00000000E+00
  0.00000000E+00  0.00000000E+00  0.00000000E+00
  0.00000000E+00  0.00000000E+00  0.00000000E+00
  0.00000000E+00  0.00000000E+00  0.00000000E+00
  0.00000000E+00  0.00000000E+00  0.00000000E+00
  0.00000000E+00  0.00000000E+00  0.00000000E+00
  0.00000000E+00  0.00000000E+00  0.00000000E+00
  0.00000000E+00  0.00000000E+00  0.00000000E+00
  0.00000000E+00  0.00000000E+00  0.00000000E+00
  0.00000000E+00  0.00000000E+00  0.00000000E+00
  0.00000000E+00  0.00000000E+00  0.00000000E+00
  0.00000000E+00  0.00000000E+00  0.00000000E+00
  0.00000000E+00  0.00000000E+00  0.00000000E+00
  0.00000000E+00  0.00000000E+00  0.00000000E+00
  0.00000000E+00  0.00000000E+00  0.00000000E+00
  0.00000000E+00  0.00000000E+00  0.00000000E+00
  0.00000000E+00  0.00000000E+00  0.00000000E+00
  0.00000000E+00  0.00000000E+00  0.00000000E+00
  0.00000000E+00  0.00000000E+00  0.00000000E+00
  0.00000000E+00  0.00000000E+00  0.00000000E+00
  0.00000000E+00  0.00000000E+00  0.00000000E+00
  0.00000000E+00  0.00000000E+00  0.00000000E+00
  0.00000000E+00  0.00000000E+00  0.00000000E+00
  0.00000000E+00  0.00000000E+00  0.00000000E+00
  0.00000000E+00  0.00000000E+00  0.00000000E+00
  0.00000000E+00  0.00000000E+00  0.00000000E+00
  0.00000000E+00  0.00000000E+00  0.00000000E+00
  0.00000000E+00  0.00000000E+00  0.00000000E+00
  0.00000000E+00  0.00000000E+00  0.00000000E+00
  0.00000000E+00  0.00000000E+00  0.00000000E+00
  0.00000000E+00  0.00000000E+00  0.00000000E+00
  0.00000000E+00  0.00000000E+00  0.00000000E+00
  0.00000000E+00  0.00000000E+00  0.00000000E+00
  0.00000000E+00  0.00000000E+00  0.00000000E+00
  0.00000000E+00  0.00000000E+00  0.00000000E+00
  0.00000000E+00  0.00000000E+00  0.00000000E+00
  0.00000000E+00  0.00000000E+00  0.00000000E+00
  0.00000000E+00  0.00000000E+00  0.00000000E+00
  0.00000000E+00  0.00000000E+00  0.00000000E+00
  0.00000000E+00  0.00000000E+00  0.00000000E+00
  0.00000000E+00  0.00000000E+00  0.00000000E+00
  0.00000000E+00  0.00000000E+00  0.00000000E+00
  0.00000000E+00  0.00000000E+00  0.00000000E+00
  0.00000000E+00  0.00000000E+00  0.00000000E+00
  0.00000000E+00  0.00000000E+00  0.00000000E+00
  0.00000000E+00  0.00000000E+00  0.00000000E+00
  0.00000000E+00  0.00000000E+00  0.00000000E+00
