 Li  O Ta Zr                            
   1.00000000000000     
    11.2310029673446845   -0.0506325874449151   -0.0432740383662216
    -3.8264243659320822   10.5152404098817485   -0.0286491725345447
    -3.8521789721040491   -5.2980382859183663    9.0850155169609117
   La   Li   O    Ta   Zr
    12    20    45     2     6
Direct
  0.6307264048631254  0.8698046343098156  0.7361136414976102
  0.8412311533726466  0.6033560248105942  0.2205203268274047
  0.1084134670735040  0.3929017046194616  0.7573813047561160
  0.3708981089115611  0.1259146104716891  0.2471751351403597
  0.7568021758289731  0.6297010313007192  0.8671877614260168
  0.2365519012854662  0.3760142936705222  0.1219068697830394
  0.2292373256175324  0.8747788685166782  0.6011013952035498
  0.7511478531912203  0.1125510457936585  0.3792892898323572
  0.8591130336960120  0.7212888243432971  0.6033549231771431
  0.1120414507063074  0.2421307035042588  0.3593129780259474
  0.6046376711055785  0.2161312014503096  0.8595532637620877
  0.3661878583723777  0.7532444320141494  0.1257260231864805
  0.6050828673904505  0.7390028996446887  0.3717672230335154
  0.8628945011511462  0.1240814435767845  0.7379570586391253
  0.5913870627357056  0.3909766798074443  0.2301004048993889
  0.7614370456546524  0.3198700289430860  0.2104373072905830
  0.9778172323773617  0.8900372155811809  0.2124170978845683
  0.5179342564107330  0.2728945103117653  0.5915621526971648
  0.7207684781103438  0.8609791122265591  0.0988405990493177
  0.2745543845182397  0.6334716827900877  0.3997942630469211
  0.1102733345356981  0.7190736084794196  0.8500631476188261
  0.7637985340186262  0.3637365420470573  0.6465297757633479
  0.3642635727789028  0.5687896278811948  0.7256456841556798
  0.1962584273870576  0.9503094740997895  0.8707153399851109
  0.0303632044409312  0.4449288247190069  0.2397181449516452
  0.1519316698039574  0.7405278030172511  0.2712488742511283
  0.0884593843518076  0.1140099374287402  0.8054089272966110
  0.2484446333446186  0.0278440459450735  0.4153839323784752
  0.3620720106852389  0.2102023853584782  0.9471455869203282
  0.1087756350735276  0.8178269590742389  0.0805125865649430
  0.8472850386981250  0.1853262449505024  0.0813234544602111
  0.7027183360106477  0.3736247540475901  0.4422698752003740
  0.1930945079451902  0.1147825437167000  0.0017323268007630
  0.0854150438876076  0.6206473894821229  0.3999971875114525
  0.8879094477783624  0.3759961608368201  0.5643567184820384
  0.4066399533800862  0.8289886864316074  0.5465724127702387
  0.8083654654706081  0.8841534397754387  0.9704274568880749
  0.5225121447437928  0.6062634599449837  0.6953495729336723
  0.4618480755965777  0.3758073873419718  0.2969489227337334
  0.6834946198089611  0.6517193748918260  0.0464878917850484
  0.9661840934700976  0.6765583911821267  0.0950745411780858
  0.5864230565511335  0.1793951790057662  0.4677640328877359
  0.1143501752605474  0.0120128850670369  0.1819184110948271
  0.4506765050533303  0.5893174924010012  0.1715245397210694
  0.2735057723766516  0.3146141513126466  0.8897257149561781
  0.5819519709278964  0.9050171191283312  0.3782624369156480
  0.4127003768515820  0.1025876220687323  0.6068781822824718
  0.9202009893303824  0.2993380983203053  0.2983769712576603
  0.0918782262859708  0.7070631096208402  0.6720587275631544
  0.8861113774303533  0.9749333671226736  0.7910013760684151
  0.1635280008145301  0.4430868703766961  0.5797264457726214
  0.8056250416466995  0.4997139677981792  0.3811983992386274
  0.3653774449449614  0.5883614751928690  0.8993957324723070
  0.5745114495230723  0.3857088023868442  0.0526384906328445
  0.0145663823084590  0.3164722709417376  0.9010096427201191
  0.9823908108791031  0.8013927833054026  0.8786092296597801
  0.0752139387398501  0.8889102493052690  0.3961541212351705
  0.6093749354560316  0.6846918411036498  0.5206146191986605
  0.6410515694584262  0.0488323646680229  0.9423080702432785
  0.3055804863149589  0.9041860911800654  0.0209498945736044
  0.0257639173745332  0.1925735826505743  0.1090392614654050
  0.3675225059792169  0.2867384832474968  0.4666543493682980
  0.3042603675254441  0.9046384720998404  0.2906759681495217
  0.9358686511569942  0.1274701300532257  0.5956279217741809
  0.7909225810367460  0.7615615305042667  0.3907297567356878
  0.0991063867135580  0.5916421856144680  0.9223119875011463
  0.8493981979558427  0.3823767283289783  0.0801049411237784
  0.3783341347183296  0.0450367021284919  0.8611870098266934
  0.5807628875225959  0.9124179629870568  0.1226910600558142
  0.5905060363000914  0.1935176083009296  0.2069864025599060
  0.0678160132222700  0.9504941020497100  0.6606506556843499
  0.9097902723449351  0.0180336625695077  0.3142629621691526
  0.6765833113317470  0.0814514303378715  0.7050628883076868
  0.2916131631815659  0.4664853076518085  0.3801347185525401
  0.7508306561086187  0.4018778628001769  0.8179559940218297
  0.1675999407273423  0.5650585481430070  0.1842962965180561
  0.6825822097914909  0.4987807709905852  0.5991530995956111
  0.9971863522234869  0.9980326538036337  0.9854905500295246
  0.4864511273588050  0.4904550564897008  0.4938549557305905
  0.0092594272983249  0.5008551518889774  0.4971909144822746
  0.5023314944248511  0.9941239506204766  0.4987082198645965
  0.9722906162419775  0.4768303149988142  0.9877284096210062
  0.9568063713346646  0.9595716161130383  0.4780709655623667
  0.4989528304067363  0.0085671439849548  0.0208856717447219
  0.4759638894938831  0.5101469026658236  0.0044834287473776
 
  0.00000000E+00  0.00000000E+00  0.00000000E+00
  0.00000000E+00  0.00000000E+00  0.00000000E+00
  0.00000000E+00  0.00000000E+00  0.00000000E+00
  0.00000000E+00  0.00000000E+00  0.00000000E+00
  0.00000000E+00  0.00000000E+00  0.00000000E+00
  0.00000000E+00  0.00000000E+00  0.00000000E+00
  0.00000000E+00  0.00000000E+00  0.00000000E+00
  0.00000000E+00  0.00000000E+00  0.00000000E+00
  0.00000000E+00  0.00000000E+00  0.00000000E+00
  0.00000000E+00  0.00000000E+00  0.00000000E+00
  0.00000000E+00  0.00000000E+00  0.00000000E+00
  0.00000000E+00  0.00000000E+00  0.00000000E+00
  0.00000000E+00  0.00000000E+00  0.00000000E+00
  0.00000000E+00  0.00000000E+00  0.00000000E+00
  0.00000000E+00  0.00000000E+00  0.00000000E+00
  0.00000000E+00  0.00000000E+00  0.00000000E+00
  0.00000000E+00  0.00000000E+00  0.00000000E+00
  0.00000000E+00  0.00000000E+00  0.00000000E+00
  0.00000000E+00  0.00000000E+00  0.00000000E+00
  0.00000000E+00  0.00000000E+00  0.00000000E+00
  0.00000000E+00  0.00000000E+00  0.00000000E+00
  0.00000000E+00  0.00000000E+00  0.00000000E+00
  0.00000000E+00  0.00000000E+00  0.00000000E+00
  0.00000000E+00  0.00000000E+00  0.00000000E+00
  0.00000000E+00  0.00000000E+00  0.00000000E+00
  0.00000000E+00  0.00000000E+00  0.00000000E+00
  0.00000000E+00  0.00000000E+00  0.00000000E+00
  0.00000000E+00  0.00000000E+00  0.00000000E+00
  0.00000000E+00  0.00000000E+00  0.00000000E+00
  0.00000000E+00  0.00000000E+00  0.00000000E+00
  0.00000000E+00  0.00000000E+00  0.00000000E+00
  0.00000000E+00  0.00000000E+00  0.00000000E+00
  0.00000000E+00  0.00000000E+00  0.00000000E+00
  0.00000000E+00  0.00000000E+00  0.00000000E+00
  0.00000000E+00  0.00000000E+00  0.00000000E+00
  0.00000000E+00  0.00000000E+00  0.00000000E+00
  0.00000000E+00  0.00000000E+00  0.00000000E+00
  0.00000000E+00  0.00000000E+00  0.00000000E+00
  0.00000000E+00  0.00000000E+00  0.00000000E+00
  0.00000000E+00  0.00000000E+00  0.00000000E+00
  0.00000000E+00  0.00000000E+00  0.00000000E+00
  0.00000000E+00  0.00000000E+00  0.00000000E+00
  0.00000000E+00  0.00000000E+00  0.00000000E+00
  0.00000000E+00  0.00000000E+00  0.00000000E+00
  0.00000000E+00  0.00000000E+00  0.00000000E+00
  0.00000000E+00  0.00000000E+00  0.00000000E+00
  0.00000000E+00  0.00000000E+00  0.00000000E+00
  0.00000000E+00  0.00000000E+00  0.00000000E+00
  0.00000000E+00  0.00000000E+00  0.00000000E+00
  0.00000000E+00  0.00000000E+00  0.00000000E+00
  0.00000000E+00  0.00000000E+00  0.00000000E+00
  0.00000000E+00  0.00000000E+00  0.00000000E+00
  0.00000000E+00  0.00000000E+00  0.00000000E+00
  0.00000000E+00  0.00000000E+00  0.00000000E+00
  0.00000000E+00  0.00000000E+00  0.00000000E+00
  0.00000000E+00  0.00000000E+00  0.00000000E+00
  0.00000000E+00  0.00000000E+00  0.00000000E+00
  0.00000000E+00  0.00000000E+00  0.00000000E+00
  0.00000000E+00  0.00000000E+00  0.00000000E+00
  0.00000000E+00  0.00000000E+00  0.00000000E+00
  0.00000000E+00  0.00000000E+00  0.00000000E+00
  0.00000000E+00  0.00000000E+00  0.00000000E+00
  0.00000000E+00  0.00000000E+00  0.00000000E+00
  0.00000000E+00  0.00000000E+00  0.00000000E+00
  0.00000000E+00  0.00000000E+00  0.00000000E+00
  0.00000000E+00  0.00000000E+00  0.00000000E+00
  0.00000000E+00  0.00000000E+00  0.00000000E+00
  0.00000000E+00  0.00000000E+00  0.00000000E+00
  0.00000000E+00  0.00000000E+00  0.00000000E+00
  0.00000000E+00  0.00000000E+00  0.00000000E+00
  0.00000000E+00  0.00000000E+00  0.00000000E+00
  0.00000000E+00  0.00000000E+00  0.00000000E+00
  0.00000000E+00  0.00000000E+00  0.00000000E+00
  0.00000000E+00  0.00000000E+00  0.00000000E+00
  0.00000000E+00  0.00000000E+00  0.00000000E+00
  0.00000000E+00  0.00000000E+00  0.00000000E+00
  0.00000000E+00  0.00000000E+00  0.00000000E+00
  0.00000000E+00  0.00000000E+00  0.00000000E+00
  0.00000000E+00  0.00000000E+00  0.00000000E+00
  0.00000000E+00  0.00000000E+00  0.00000000E+00
  0.00000000E+00  0.00000000E+00  0.00000000E+00
  0.00000000E+00  0.00000000E+00  0.00000000E+00
  0.00000000E+00  0.00000000E+00  0.00000000E+00
  0.00000000E+00  0.00000000E+00  0.00000000E+00
  0.00000000E+00  0.00000000E+00  0.00000000E+00
