unknown system                          
           1
    11.135316    0.000000    0.000000
    -3.747854   10.599354    0.000000
    -3.807972   -5.329954    9.121129
   La   Li   O    Ta   Zr
    12    20    45     2     6
Direct configuration= 40000
   0.63428651  0.86149980  0.74120900
   0.85674936  0.62238039  0.22845130
   0.10087733  0.40531147  0.74535062
   0.37085093  0.11774721  0.23552995
   0.77379491  0.65465121  0.86478960
   0.24549075  0.37241644  0.11813911
   0.24285678  0.87585696  0.60938919
   0.74386370  0.11378779  0.39012691
   0.87100003  0.75240629  0.61590603
   0.10780609  0.25402321  0.35850734
   0.60977532  0.19994849  0.85701746
   0.34862650  0.74166337  0.12623210
   0.85246723  0.12324986  0.74813097
   0.84399496  0.19597509  1.10173674
   0.59452971  0.50399593  0.26609872
   0.72874624  0.35618767  0.17434470
   0.51296315  0.71880525  0.41242919
   0.54402360  0.30775258  0.60532326
   0.64090859  0.75416987  1.23807579
   0.27343558  0.61572407  0.38670354
   0.12416391  0.73096296  0.87426304
   0.74518198  0.34745531  0.62432856
   0.36677169  0.57653155  0.70362669
   0.20486686  0.95322802  0.88085017
   0.01967607  0.44677609  0.22886785
   0.16308977  0.72697343  0.25493732
   0.12955743  0.13289923  0.80728119
   0.22918393  0.03842423  0.42830163
   0.36754138  0.20583781  0.90055198
   1.06948491  0.86537442  0.20451998
   0.76654838 -0.11785032  0.12586796
   0.70620726  0.38181231  0.41895671
   0.21153536  0.13717488  1.00524398
   0.08680463  0.63922761  0.39861232
   0.89212792  0.39317619  0.56435335
   0.41246379  0.81136975  0.51457745
   0.82753235  0.90361500  0.98379389
   0.52850875  0.61259155  0.68533403
   0.48213012  0.38259500  0.30296820
   0.68481338  0.65570064  0.03857328
   0.95758653  0.66988656  0.08521875
   0.58561606  0.17827808  0.47163141
   0.14327873  0.05064720  0.21778992
   0.46456682  0.56845231  0.15531924
   0.27762279  0.30359469  0.83426047
   0.59856872  0.89607684  0.38569688
   0.41063346  0.09682564  0.62771599
   0.94549271  0.34053511  0.31144309
   0.11157455  0.73055247  0.68214722
   0.88727009  0.99030202  0.81452541
   0.17859924  0.48596149  0.57851663
   0.81472620  0.52795200  0.38816672
   0.37696415  0.61620276  0.91501054
   0.57914675  0.40325157  0.06917357
   0.02324988  0.31803078  0.90718333
   0.99081492  0.81597435  0.87502963
   0.06618219  0.88796925  0.38081140
   0.63032275  0.68408866  0.52849969
   0.61682170  1.01709305  0.92491251
   0.31843350  0.89800009  0.02730063
   0.02473718  0.19776819  0.10825084
   0.37426941  0.30790785  0.48248962
   0.31650380  0.92322815  0.31009416
   0.91432985  0.13170089  0.60094127
   0.79345797  0.79012385  0.39331348
   0.09667368  0.58354355  0.90329107
   0.85500395  0.38422144  0.07653627
   0.35976212  0.02131274  0.84740245
   0.60479088  0.92860805  0.14850892
   0.63340862  0.19986686  0.21546888
   0.08326923  0.96991442  0.66785194
   0.90635433  0.04838380  0.32556567
   0.66061854  0.08835800  0.70069737
   0.30046761  0.45669037  0.37736121
   0.75887473  0.41032375  0.80107654
   0.17686572  0.56039498  0.16829923
   0.69284587  0.49426006  0.60973564
   0.00608155  0.01199300  1.00410705
   0.49294592  0.47721544  0.48805581
   0.00408310  0.51785740  0.49758176
   0.50719885  0.00108832  0.49541293
   0.95984440  0.47059855  0.96541677
   0.96247029  0.98467732  0.47906420
   0.52189728  1.01256749  0.04244142
   0.47187765  0.50542387 -0.03197269
