unknown system                          
   1.0000000000000000     
    11.2123087627762796   -0.0628624284041601   -0.0142723824936311
    -3.8333905291675539   10.4927712116285257   -0.0382011828109700
    -3.8161206690580798   -5.2803548971027245    9.1109543654492828
   La   Li   O    Ta   Zr
    12    20    45     2     6
Direct
  0.6358054419099446  0.8750848114420933  0.7347730546020870
  0.8416419830044006  0.6108671395853875  0.2190732076859021
  0.1091221380232739  0.3984718305243646  0.7538916447861723
  0.3656510038043166  0.1198607737760184  0.2408990677461134
  0.7711958516812984  0.6449835995031918  0.8784707555903850
  0.2428733356132611  0.3811223292019221  0.1220807450421404
  0.2341383420229164  0.8851652535533248  0.6018663041291248
  0.7530199916160996  0.1274187570693286  0.3826147069094716
  0.8625413983635539  0.7314133329901935  0.6030437607731258
  0.1068119212389291  0.2409944685479033  0.3501703801158769
  0.6104967636539769  0.2207688104843015  0.8637284762495412
  0.3502110313297635  0.7530575302833711  0.1213546264032530
  0.8680933641663913  0.1317700310340513  0.7390518822828014
  0.8526261782536864  0.1976324553324602  0.0778931435012495
  0.5915246100868430  0.3931960535925043  0.2262642952211422
  0.7651169516331251  0.3262205631353865  0.2110991737685524
  0.5972970946305267  0.7399720050507668  0.3792222834143431
  0.5361924676765284  0.2893653288469338  0.6015143816733115
  0.6653157565838441  0.8023350770838107  0.2226853471492092
  0.2826856506212536  0.6362340052341295  0.4049989630443562
  0.1060684059920760  0.7282484443110420  0.8588192739002096
  0.7730894030381563  0.3791320077992353  0.6509755364262304
  0.3640677046780851  0.5743084782885504  0.7219998304855935
  0.2010468909951797  0.9504937135458604  0.8688327741209321
  0.0346683561970522  0.4513952263125560  0.2411732613045316
  0.1629250706698073  0.7337428701485749  0.2804586163604270
  0.0890252578575854  0.1189200915752764  0.8014495186120243
  0.2774955807377211  0.0846911406347601  0.4604812448541225
  0.3616588532374649  0.2098342093749181  0.9437085688621494
  0.0896788296675339  0.8787647786888684  0.2179615468965892
  0.7497042898121791  0.8979780231599932  0.0980464476722247
  0.6974566314693362  0.3819715587340937  0.4403480601767100
  0.1988471589737912  0.1198899785652543  0.9977269213725606
  0.0897109918696728  0.6311454208822411  0.3976542790562831
  0.8908864127017821  0.3866049303360910  0.5639021115767164
  0.4096644192470080  0.8338234287050810  0.5452819694938285
  0.8095044231777209  0.8914727507774458  0.9602799805721745
  0.5263122629459716  0.6091862660293117  0.6986351362842456
  0.4691894577914297  0.3760135488302936  0.3032759970823093
  0.6849265759141758  0.6692440468861776  0.0557730986772000
  0.9703255680100327  0.6731166402088320  0.1023758922615770
  0.5901867177368416  0.1862340934778217  0.4691104793155247
  0.1159610043828323  0.0314584865591243  0.1801835453096245
  0.4638850555219634  0.6031350250090739  0.1685504454323450
  0.2743696971906999  0.3160331705520747  0.8854328437110723
  0.5810705587033098  0.9065020265104593  0.3736918123671060
  0.4283039211148321  0.1171851909707513  0.6206413594156501
  0.9240984910093744  0.3078657758169996  0.2982245802678634
  0.0946742737426902  0.7149068020040801  0.6728536981752953
  0.8906970309353994  0.9843265287505005  0.7870568665809827
  0.1646893242379264  0.4502243006495092  0.5758053972066577
  0.8068145952975883  0.5082428751935026  0.3795819379614613
  0.3626360118495526  0.5909148627992735  0.8935862230429521
  0.5774673597868443  0.3919928506128159  0.0495980329450347
  0.0217018259432038  0.3215821212281753  0.9036273137861670
  0.9783439812665478  0.8079350874502538  0.8673814622125207
  0.0968741920150791  0.9225145163711232  0.4086202387172833
  0.6106070843408276  0.6849480696358796  0.5213095990243346
  0.6481929885668620  0.0515273649405046  0.9443698558802822
  0.3107749369261725  0.9058271338932897  0.0194405350301494
  0.0286156406856293  0.2022176195503675  0.1039275508257091
  0.3682159517008614  0.2874071774824785  0.4736294853075762
  0.3047918476938847  0.9150109806262705  0.3008426007427047
  0.9404017299622112  0.1371886484320584  0.5973253785705310
  0.7885190209824131  0.7779266498029784  0.3823251742114451
  0.0946895987045480  0.5882315029222411  0.9139619316247121
  0.8538486623624024  0.3855682782621628  0.0812992056879693
  0.3845981813025716  0.0468383314408740  0.8624453634932934
  0.5849024948307644  0.9086646525754674  0.1235221346670414
  0.5942636047948469  0.1937230644811123  0.2045001427962490
  0.0674953281025168  0.9539056475708776  0.6553736684073854
  0.8946845926372475  0.0268567548636085  0.3139538011140601
  0.6809831448367660  0.0866526993932197  0.7045601558213832
  0.2955745974589092  0.4671243540901884  0.3797569467812636
  0.7573218978080263  0.4103692987813687  0.8214650463542128
  0.1793437638834803  0.5714240413560177  0.1835072364058803
  0.6855476496846507  0.5027988660386526  0.6052592658176152
  0.0022547903742804  0.0056782089500587  0.9815368376769698
  0.4887743793124670  0.4900142195016031  0.4988563878522427
  0.0132313904719012  0.5104567706475649  0.4978708588901881
  0.5067541939710409  0.0014390554916446  0.5001970378544556
  0.9740614260539218  0.4790021036569101  0.9869341255098547
  0.9648268340308803  0.9742998937494960  0.4771220821341018
  0.5050933129345836  0.0072176797223094  0.0211064561597922
  0.4725845039529730  0.5098473781193036  0.9924445727742608

  0.00000000E+00  0.00000000E+00  0.00000000E+00
  0.00000000E+00  0.00000000E+00  0.00000000E+00
  0.00000000E+00  0.00000000E+00  0.00000000E+00
  0.00000000E+00  0.00000000E+00  0.00000000E+00
  0.00000000E+00  0.00000000E+00  0.00000000E+00
  0.00000000E+00  0.00000000E+00  0.00000000E+00
  0.00000000E+00  0.00000000E+00  0.00000000E+00
  0.00000000E+00  0.00000000E+00  0.00000000E+00
  0.00000000E+00  0.00000000E+00  0.00000000E+00
  0.00000000E+00  0.00000000E+00  0.00000000E+00
  0.00000000E+00  0.00000000E+00  0.00000000E+00
  0.00000000E+00  0.00000000E+00  0.00000000E+00
  0.00000000E+00  0.00000000E+00  0.00000000E+00
  0.00000000E+00  0.00000000E+00  0.00000000E+00
  0.00000000E+00  0.00000000E+00  0.00000000E+00
  0.00000000E+00  0.00000000E+00  0.00000000E+00
  0.00000000E+00  0.00000000E+00  0.00000000E+00
  0.00000000E+00  0.00000000E+00  0.00000000E+00
  0.00000000E+00  0.00000000E+00  0.00000000E+00
  0.00000000E+00  0.00000000E+00  0.00000000E+00
  0.00000000E+00  0.00000000E+00  0.00000000E+00
  0.00000000E+00  0.00000000E+00  0.00000000E+00
  0.00000000E+00  0.00000000E+00  0.00000000E+00
  0.00000000E+00  0.00000000E+00  0.00000000E+00
  0.00000000E+00  0.00000000E+00  0.00000000E+00
  0.00000000E+00  0.00000000E+00  0.00000000E+00
  0.00000000E+00  0.00000000E+00  0.00000000E+00
  0.00000000E+00  0.00000000E+00  0.00000000E+00
  0.00000000E+00  0.00000000E+00  0.00000000E+00
  0.00000000E+00  0.00000000E+00  0.00000000E+00
  0.00000000E+00  0.00000000E+00  0.00000000E+00
  0.00000000E+00  0.00000000E+00  0.00000000E+00
  0.00000000E+00  0.00000000E+00  0.00000000E+00
  0.00000000E+00  0.00000000E+00  0.00000000E+00
  0.00000000E+00  0.00000000E+00  0.00000000E+00
  0.00000000E+00  0.00000000E+00  0.00000000E+00
  0.00000000E+00  0.00000000E+00  0.00000000E+00
  0.00000000E+00  0.00000000E+00  0.00000000E+00
  0.00000000E+00  0.00000000E+00  0.00000000E+00
  0.00000000E+00  0.00000000E+00  0.00000000E+00
  0.00000000E+00  0.00000000E+00  0.00000000E+00
  0.00000000E+00  0.00000000E+00  0.00000000E+00
  0.00000000E+00  0.00000000E+00  0.00000000E+00
  0.00000000E+00  0.00000000E+00  0.00000000E+00
  0.00000000E+00  0.00000000E+00  0.00000000E+00
  0.00000000E+00  0.00000000E+00  0.00000000E+00
  0.00000000E+00  0.00000000E+00  0.00000000E+00
  0.00000000E+00  0.00000000E+00  0.00000000E+00
  0.00000000E+00  0.00000000E+00  0.00000000E+00
  0.00000000E+00  0.00000000E+00  0.00000000E+00
  0.00000000E+00  0.00000000E+00  0.00000000E+00
  0.00000000E+00  0.00000000E+00  0.00000000E+00
  0.00000000E+00  0.00000000E+00  0.00000000E+00
  0.00000000E+00  0.00000000E+00  0.00000000E+00
  0.00000000E+00  0.00000000E+00  0.00000000E+00
  0.00000000E+00  0.00000000E+00  0.00000000E+00
  0.00000000E+00  0.00000000E+00  0.00000000E+00
  0.00000000E+00  0.00000000E+00  0.00000000E+00
  0.00000000E+00  0.00000000E+00  0.00000000E+00
  0.00000000E+00  0.00000000E+00  0.00000000E+00
  0.00000000E+00  0.00000000E+00  0.00000000E+00
  0.00000000E+00  0.00000000E+00  0.00000000E+00
  0.00000000E+00  0.00000000E+00  0.00000000E+00
  0.00000000E+00  0.00000000E+00  0.00000000E+00
  0.00000000E+00  0.00000000E+00  0.00000000E+00
  0.00000000E+00  0.00000000E+00  0.00000000E+00
  0.00000000E+00  0.00000000E+00  0.00000000E+00
  0.00000000E+00  0.00000000E+00  0.00000000E+00
  0.00000000E+00  0.00000000E+00  0.00000000E+00
  0.00000000E+00  0.00000000E+00  0.00000000E+00
  0.00000000E+00  0.00000000E+00  0.00000000E+00
  0.00000000E+00  0.00000000E+00  0.00000000E+00
  0.00000000E+00  0.00000000E+00  0.00000000E+00
  0.00000000E+00  0.00000000E+00  0.00000000E+00
  0.00000000E+00  0.00000000E+00  0.00000000E+00
  0.00000000E+00  0.00000000E+00  0.00000000E+00
  0.00000000E+00  0.00000000E+00  0.00000000E+00
  0.00000000E+00  0.00000000E+00  0.00000000E+00
  0.00000000E+00  0.00000000E+00  0.00000000E+00
  0.00000000E+00  0.00000000E+00  0.00000000E+00
  0.00000000E+00  0.00000000E+00  0.00000000E+00
  0.00000000E+00  0.00000000E+00  0.00000000E+00
  0.00000000E+00  0.00000000E+00  0.00000000E+00
  0.00000000E+00  0.00000000E+00  0.00000000E+00
  0.00000000E+00  0.00000000E+00  0.00000000E+00
